ITEM: TIMESTEP
1
ITEM: NUMBER OF ATOMS
200
ITEM: BOX BOUNDS pp pp pp
-10.000000 10.000000
-10.000000 10.000000
-10.000000 10.000000
ITEM: ATOMS id element x y z
       1        A   6.8038  -2.1123   5.6620
       2        A   5.9688   8.2329  -6.0490
       3        A  -3.2955   5.3646  -4.4445
       4        A   1.0794  -0.4521   2.5774
       5        A  -2.7043   0.2680   9.0446
       6        A   8.3239   2.7142   4.3459
       7        A  -7.1679   2.1394  -9.6740
       8        A  -5.1423  -7.2554   6.0835
       9        A  -6.8664  -1.9811  -7.4042
      10        A  -7.8238   9.9785  -5.6349
      11        A   0.2586   6.7822   2.2528
      12        A  -4.0794   2.7510   0.4857
      13        A  -0.1283   9.4555  -4.1497
      14        A   5.4272   0.5349   5.3983
      15        A  -1.9954   7.8306  -4.3337
      16        A  -2.9508   6.1545   8.3805
      17        A  -8.6049   8.9865   0.5199
      18        A  -8.2789  -6.1557   3.2645
      19        A   7.8047  -3.0221  -8.7166
      20        A  -9.5995  -0.8460  -8.7381
      21        A  -5.2344   9.4127   8.0442
      22        A   7.0184  -4.6667   0.7952
      23        A  -2.4959   5.2050   0.2507
      24        A   3.3545   0.6321  -9.2144
      25        A  -1.2472   8.6367   8.6162
      26        A   4.4190  -4.3141   4.7707
      27        A   2.7996  -2.9190   3.7572
      28        A  -6.6805  -1.1979   7.6015
      29        A   6.5840  -3.3933  -5.4206
      30        A   7.8674  -2.9928   3.7334
      31        A   9.1294   1.7728   3.1461
      32        A   7.1735  -1.2088   8.4794
      33        A  -2.0313   6.2953   3.6844
      34        A   8.2194  -0.3502  -5.6835
      35        A   9.0050   8.4026  -7.0468
      36        A   7.6212   2.8216  -1.3609
      37        A   2.3919  -4.3788   5.7200
      38        A  -3.8508  -1.0593  -5.4779
      39        A  -6.2493  -4.4753   1.1289
      40        A  -1.6700  -6.6079   8.1361
      41        A  -7.9366  -7.4785  -0.0911
      42        A   5.2095   9.6950   8.7001
      43        A   3.6889  -2.3362   4.9954
      44        A  -2.6267  -4.1168  -5.3548
      45        A   1.6898  -5.1117  -6.9522
      46        A   4.6430  -7.4905   5.8694
      47        A  -6.7180   4.9014  -8.5094
      48        A   9.0021  -8.9494   0.4313
      49        A  -6.4758  -5.1988   5.9560
      50        A   4.6531   3.1313   9.3481
      51        A   2.7892   5.1947  -8.1304
      52        A  -7.3020   0.4042  -8.4354
      53        A  -8.6019  -5.9069  -0.7716
      54        A   6.3935   1.4664   5.1116
      55        A  -8.9612  -6.8439   9.9999
      56        A  -5.9134   7.7991  -7.4906
      57        A   9.9560  -8.9188   7.4108
      58        A  -8.5534  -9.9168   8.4614
      59        A   1.8778  -6.3926  -6.7374
      60        A  -2.1662   8.2605   6.3939
      61        A  -2.8181   1.0497   1.5886
      62        A  -0.9485   3.7477  -8.0072
      63        A   0.6162   5.1459  -3.9141
      64        A   9.8446   1.5394   7.5523
      65        A   4.9562   2.5782  -9.2916
      66        A   4.9561   6.6648   8.5075
      67        A   7.4654   6.6208   9.5887
      68        A   4.8762   8.0673   9.6719
      69        A   3.3376  -0.0548  -6.7206
      70        A   6.6002   7.7790  -8.4601
      71        A   2.9941  -5.0391   2.5896
      72        A  -5.4173   4.0124  -3.6627
      73        A  -3.4245  -5.3714  -8.5168
      74        A   2.6614  -5.5269   3.0226
      75        A   0.2137   9.4293  -4.3992
      76        A   0.9221   4.3854  -7.7344
      77        A  -0.5703   1.8508   8.8864
      78        A  -0.9816  -3.2730   6.9537
      79        A  -1.3097  -9.9354  -3.1011
      80        A   1.9696   6.6649  -5.3222
      81        A   3.5095  -0.3410  -0.3613
      82        A  -3.9009   4.2417  -6.3489
      83        A   2.4365  -9.1827  -1.7203
      84        A   3.9197   3.4787   2.7528
      85        A  -3.0577  -6.3076   2.1821
      86        A   2.5432   4.6146  -3.4325
      87        A   4.8088  -5.9557   8.4183
      88        A   3.6951   3.0626  -4.8547
      89        A   0.6488  -8.2471  -4.7901
      90        A   7.5477   3.7225  -8.1252
      91        A  -7.7745  -2.7680   1.5338
      92        A   1.8642   3.3311  -4.2244
      93        A   5.5153  -4.2324  -3.4072
      94        A  -6.2050   9.6873  -9.9284
      95        A   6.5478  -3.3704  -6.2360
      96        A  -1.2701   9.1727   8.3786
      97        A   5.2974   3.9815  -7.5771
      98        A   3.7157  -2.3234   5.4855
     99        A   8.8610   8.3255   7.2383
     100        A  -5.9290   5.8731   0.9608
     101        A  -4.0542   8.0986   8.1929
     102        A   7.4796  -0.0371   1.5240
     103        A  -6.7449  -4.5218   7.2916
     104        A  -0.1520  -0.7268   6.9788
     105        A  -0.0805  -4.1789  -6.3916
     106        A   3.6836   4.5510  -7.2188
     107        A   2.0622  -0.1516   6.7627
     108        A   4.4850  -6.4358  -5.5607
     109        A  -0.0295  -7.5748  -7.2352
     110        A  -2.7911  -3.5039   8.6379
     111        A   8.1697   2.4419   6.7366
     112        A   6.3626  -0.0785  -3.3006
     113        A  -2.1135   3.1766   2.1777
     114        A  -4.8219  -6.9754  -8.5491
     115        A  -7.8430   2.9441  -2.7280
     116        A  -4.2346  -3.3723  -8.1770
     117        A  -1.4534   8.6899   1.6714
     118        A  -4.6908   3.1749   5.2356
     119        A  -0.2515  -6.8546   7.6607
     120        A   2.5133   0.3543  -5.8431
     121        A   1.1512  -1.4760   6.5988
     122        A  -2.1122  -5.1135  -3.4797
     123        A   4.5872   2.7731   9.6969
     124        A  -3.2351   7.9512  -7.2785
     125        A  -1.7842  -9.8918   5.6656
     126        A   5.4877  -4.1264  -7.7066
     127        A   7.3107   4.4201  -9.0168
     128        A  -1.0179   9.7293   4.1582
     129        A  -5.7823  -0.5221   7.3036
     130        A  -8.1216  -8.0088  -2.3421
     131        A  -3.9647   3.1424   6.1819
     132        A  -7.3660  -8.9698  -8.9316
     133        A  -0.8457   5.6174   3.8415
     134        A  -1.1488  -7.6178   1.7927
     135        A   1.5727   0.5980   1.9009
     136        A  -2.7617  -3.9143   7.7745
     137        A  -0.4683  -6.6036   2.1946
     138        A   0.5149   2.3785   1.9239
     139        A  -5.3269   6.5962  -8.5982
     140        A  -8.0233   8.4746  -6.6070
     141        A  -0.3653  -5.4902   6.5354
     142        A  -4.1834  -2.8561   7.5656
     143        A  -3.1150   6.2982   3.1829
     144        A  -9.2735  -4.8506   5.5651
     145        A   2.5193   6.7221  -3.8369
     146        A  -5.5798  -6.0396   2.2488
     147        A  -7.8053   3.4921   5.6452
     148        A   4.3892  -5.9930  -1.9762
     149        A  -3.6868  -1.3198  -5.3801
     150        A  -2.2850   0.6569  -6.9055
     151        A   1.1080  -9.7084  -2.3957
     152        A  -2.3567  -3.8918   4.7482
     153        A  -4.7911   2.9932   1.0463
     154        A   8.3918   3.7197   6.1957
     155        A   3.9570  -3.7610   2.9178
     156        A  -9.8799   0.6592   6.8782
     157        A   2.3689   2.8539   0.3703
     158        A  -1.9858  -2.7569   4.3773
     159        A   6.0379   3.5562  -6.9425
     160        A  -9.3421  -8.7288   3.7144
     161        A  -6.2477   2.3792   4.0060
     162        A   1.3566  -9.9775  -9.8858
     163        A  -3.8952  -4.7686   3.1074
     164        A   7.1511  -6.3768  -3.1729
     165        A   3.3468   7.5802   3.0661
     166        A  -3.7354   7.7003  -6.2747
     167        A  -6.8572   0.0692   6.5791
     168        A   3.5131   8.0834  -6.1778
     169        A  -2.1096   4.1213   7.3785
     170        A   0.9479   4.7792   8.6497
     171        A  -5.3376   8.5315   1.0289
     172        A   8.6684  -0.1119   1.0514
     173        A   8.7826   5.9929   6.2828
     174        A   1.8899   3.1440   9.9060
     175        A   8.7170  -3.5092   7.4862
     176        A   1.7831   2.7554   5.1865
     177        A   5.5084   5.8982  -4.7443
     178        A   2.0876  -0.5887  -6.6609
     179        A   5.9098   7.3017   7.4604
     180        A   3.2883  -1.7503   2.2396
     181        A   1.9380   2.9120   0.7711
     182        A  -7.0332   1.5804  -9.3407
     183        A   4.0182   0.3630   6.6522
     184        A   0.3010  -7.7470  -0.2038
     185        A   0.2070  -9.0300   6.2870
     186        A  -2.3068   2.7531  -0.9576
     187        A  -7.1204  -1.7384  -5.0593
     188        A  -1.8647  -9.6509   4.3519
     189        A   1.4744   6.2589   1.6536
     190        A  -1.0651  -0.4528   9.9033
     191        A  -8.8255  -8.5148   2.8153
     192        A   1.9456  -5.5480  -5.6042
     193        A   2.6049   8.4703   4.7588
     194        A  -0.7430  -1.2288   7.0117
     195        A   9.0532   8.9782   7.9817
     196        A   5.3403  -3.3286   0.7348
     197        A  -5.6173  -0.4490   8.9964
     198        A  -0.6766   7.6864   9.3455
     199        A  -6.3247  -0.8392   5.6045
     200        A   5.3290   8.0956  -4.8483
