ITEM: TIMESTEP
1
ITEM: NUMBER OF ATOMS
200
ITEM: BOX BOUNDS xy xz yz pp pp pp
-10.000000 20.000000 10.000000
-8.660254 8.660254 0.000000
-10.000000 10.000000 0.000000
ITEM: ATOMS id element x y z
       1        A  12.1163   5.3638  -8.2241
       2        A  -4.0873  -2.6274  -1.5608
       3        A   4.6600  -7.5104   1.7496
       4        A  12.7654   8.4975  -4.0856
       5        A  -3.8767  -7.4538   8.9928
       6        A   0.8706  -3.0708   9.7673
       7        A   9.6036  -3.8917   1.9325
       8        A   9.6075   6.0259  -6.3075
      9        A   6.8470   6.7509   7.0096
      10        A  -2.6157  -6.8768  -9.1020
      11        A  10.9393   5.2645   7.0915
      12        A  13.9300   7.3686  -5.9423
      13        A  -0.6327   2.1690  -4.6146
      14        A   7.5466  -4.0150  -4.8026
      15        A  -3.8257   0.6847  -3.4095
      16        A  18.9888   7.3042   3.0447
      17        A  17.1814   4.5766   8.5510
      18        A   4.6781  -3.1064   5.5092
      19        A  12.3453   3.7779   3.3044
      20        A   2.5322  -8.0393   5.3638
      21        A   9.8801   3.1323   1.4427
      22        A   4.3095  -1.4787  -0.0488
      23        A   9.9247   1.2189  -7.5442
      24        A  12.7423  -3.2284  -2.1803
      25        A  -1.6707  -2.5538   8.6103
      26        A   4.8057  -2.7515   7.0445
      27        A  -2.3800  -3.1506   2.3290
      28        A   1.9068   6.7841   8.7420
      29        A  14.9981   2.5961   3.1044
      30        A   4.3894  -4.1817   3.8214
      31        A   6.2890   7.1387  -2.5618
      32        A  12.8133  -1.3801   5.7308
      33        A  -0.1250  -6.3850  -2.8617
      34        A   2.1339  -6.7259   3.4104
      35        A  12.3554  -2.5658  -9.5385
      36        A  16.6628   7.3019  -2.7156
      37        A   5.9268  -6.1743   3.6464
      38        A  -0.2492  -3.5849   1.4800
      39        A  -2.2575  -4.8846  -5.5223
      40        A  16.7487   5.3376  -0.3509
      41        A   4.1539  -5.7756  -2.1078
      42        A  10.8972  -6.9793   6.2985
      43        A  10.9087   0.4351   8.9258
      44        A  -6.4445  -7.3444  -8.8406
      45        A   6.3843  -8.3517  -1.8034
      46        A  15.5694   6.7579  -3.3719
      47        A   0.0996   1.9874  -0.5014
      48        A  17.1563   7.8942   5.3591
      49        A   1.4176  -4.6090   9.7188
      50        A   5.2289  -5.7633   5.8822
      51        A   1.1222   5.0520   9.2131
      52        A   8.9777   4.9885  -8.8459
      53        A   3.1050   1.2278   1.6565
      54        A   3.4287   3.6490   3.1760
      55        A   2.6911   0.3635   3.5322
      56        A   9.2216  -2.5224   1.3355
      57        A  -2.1742   0.9003  -6.3696
      58        A   6.1237  -1.1793  -7.2542
      59        A   6.0221   6.6830  -2.5762
      60        A   2.5191   1.1026   0.7689
      61        A   0.0040   3.8786  -3.3975
      62        A  -5.2341  -3.8311  -7.6373
      63        A  -0.3819   2.5741   3.7804
      64        A  14.4355   8.0491  -2.0061
      65        A   1.3521  -2.7924   8.4136
      66        A  -7.2767  -6.5355  -4.4989
      67        A   5.2118  -4.5384   6.5407
      68        A  14.7444   5.6847  -4.8211
      69        A  11.0721  -5.4319  -7.1042
      70        A   1.9371   0.5285   4.1690
      71        A  14.0884   2.9229  -1.3524
      72        A   1.6797   4.6357   4.2238
      73        A   5.6084   7.3480  -2.8038
      74        A  -3.2170   2.8346  -3.5095
      75        A  -1.2409  -7.5886   3.2661
      76        A  -2.0790  -6.2925   5.7196
      77        A   9.8381   4.8203  -9.5209
      78        A   4.6100   1.7567   7.0432
      79        A   9.3930   1.0709  -9.2290
      80        A  15.6048   6.8144   1.3813
      81        A   8.4743   4.5635  -5.2437
      82        A  19.1235   8.0304  -9.8909
      83        A   6.5304  -3.7769   8.5939
      84        A  -6.2002  -3.6501   1.8670
      85        A   4.3605   3.3997   3.1045
      86        A  -9.0963  -8.2448   5.8385
      87        A  12.6509   2.1952   1.4045
      88        A   7.4279  -7.6811  -6.5671
      89        A  11.3585   4.2482   4.6695
      90        A  10.4648   1.3648   2.5380
      91        A  -2.7342  -6.5683  -2.1925
      92        A   1.7657  -7.0125  -2.9198
      93        A   8.7303   4.8616   2.7190
      94        A   7.7778   5.6472   8.5043
      95        A  -6.6563  -5.2667   2.4299
      96        A   6.7800  -4.6918   2.9097
      97        A   0.8102  -7.8239  -4.5555
      98        A   0.6460   6.7795  -3.4248
     99        A   1.0318   1.5018  -8.5194
     100        A  13.0396  -3.1083   3.0566
     101        A   8.6067   2.1381   5.4721
     102        A  -8.1787  -5.8169   7.3748
     103        A   4.3633   3.6432   2.9885
     104        A  11.8410  -5.4350  -0.4907
     105        A  11.0374  -4.2361   3.4279
     106        A  10.7118   8.3116   8.0102
     107        A  -1.2149  -0.0652   8.9760
     108        A   5.0955   1.4346   6.8043
     109        A  14.2531   5.9074  -1.4616
     110        A  15.6508   5.7638   4.9492
     111        A   4.8936  -0.8420  -2.5819
     112        A   0.4555  -0.6864   0.7014
     113        A   1.4603   5.6009  -5.0919
     114        A  14.4383   5.5826  -1.3677
     115        A   3.1892   4.2690   3.7409
     116        A  12.0736  -3.6005   3.3383
     117        A  11.9952  -0.2899  -6.7370
     118        A  15.6048   7.7358   4.9196
     119        A  10.3303   4.1353   1.7408
     120        A  -2.4698   1.8170  -1.6037
     121        A   7.6693  -6.5144   7.4240
     122        A  -1.9867  -1.4466  -3.3685
     123        A  10.3280   1.3478  -6.9012
     124        A  13.3437  -1.9300   9.5451
     125        A   4.8383   3.0275   4.4746
     126        A  -1.8447   2.2934  -9.6829
     127        A  10.0748  -0.1640  -0.0176
     128        A  11.4071  -3.5081  -1.0850
     129        A  12.7980   7.7006  -6.3100
     130        A  -4.7206  -8.3371   5.7881
     131        A  11.8909   5.8920   8.2659
     132        A   1.2392  -8.0956  -3.4044
     133        A  15.1457   4.5050   8.1518
     134        A  -2.0265   4.0356  -4.0767
     135        A  -8.4362  -6.2785   9.4191
     136        A   6.9540  -4.6926   2.0673
     137        A  14.8559   8.4445  -8.1220
     138        A   4.0545   7.0870  -2.1729
     139        A   9.6455   1.3297  -3.2809
     140        A  15.8820   5.7403  -2.9079
     141        A   8.4147   0.1018  -6.1044
     142        A   2.1372  -7.7675  -5.4524
     143        A  17.5052   7.4267   9.7495
     144        A  15.9788   7.9840   4.4094
     145        A   1.9964   8.1475   7.1596
     146        A  -1.2528   3.5257  -8.2589
     147        A   8.3047  -0.8214  -8.5080
     148        A  12.6640   3.4766   9.6754
     149        A  -2.5700  -1.8254   1.2109
     150        A   2.9330  -3.9318  -2.1608
     151        A  16.7031   7.6348   7.9568
     152        A  -3.5904   0.3791   8.9876
     153        A   0.0659  -1.1647   7.5632
     154        A  -2.0000  -4.3090   6.7824
     155        A  13.5557  -2.3237   6.1902
     156        A  11.5711  -0.8414   0.2614
     157        A  10.2017  -6.2290   9.3130
     158        A  -0.4779   7.3302   3.3274
     159        A  10.9395  -6.9731  -8.7805
     160        A   7.2519   1.8629  -3.3205
     161        A  13.7387  -0.4795  -4.5046
     162        A  12.2909   0.5517   5.9331
     163        A  14.1478   5.5213  -5.4118
     164        A   4.4549  -7.0466  -0.3874
     165        A   1.1859  -7.1356   6.9294
     166        A   5.9046   7.6362  -4.0421
     167        A  15.5650   6.5952  -1.2347
     168        A  15.0229   6.8464  -2.7705
     169        A   8.3330   6.8165  -0.8224
     170        A   5.1407  -0.8250  -8.6713
     171        A  11.3280  -1.6775   0.7750
     172        A  -4.6904  -4.2995  -8.5879
     173        A   9.2227  -7.7982   7.7875
     174        A   0.5725   3.9133   9.6508
     175        A   5.3379  -4.4823  -8.5886
     176        A   5.5152   1.1432  -9.7712
     177        A   9.8517  -1.6651   7.8443
     178        A  -3.3479  -5.0684   5.7498
     179        A   8.5803   3.0701   3.6208
     180        A  -6.9336  -5.0558  -7.3319
     181        A  -6.9565  -7.3970   0.7311
     182        A   5.2144  -4.9791   5.7664
     183        A   5.9890  -6.0833   6.7618
     184        A   5.4331  -3.2140   1.2805
     185        A  11.5468   7.9801   6.1047
     186        A   7.8857  -0.8056  -2.5752
     187        A   6.0211  -4.4316   5.5021
     188        A   6.1546  -0.4666   9.6496
     189        A  -2.1916  -7.5612   3.1946
     190        A  -8.0781  -6.7079   7.3567
     191        A  -4.2529  -4.7038   8.8154
     192        A  13.0227   6.6317  -6.9341
     193        A   6.0397   1.8696  -3.9585
     194        A  -1.0541  -4.8086   2.3304
     195        A  16.1962   5.5313   1.5449
     196        A   8.9763  -0.2270  -9.3853
     197        A  -6.8090  -5.7871  -4.5025
     198        A  14.4051   4.1064   4.9587
     199        A   7.6416  -7.0014   6.2278
     200        A   1.2336  -6.3132   8.4822
