Created via AnalysisTools v4.0 (https://github.com/KaGaSi/AnalysisTools); Command: AddToSystem old.data /home/kagasi/Code/AnalysisTools/Examples/AddToSystem/07-Cylinder/W.FIELD Wire.data -ld 0.5 -bt A B --add -o Wire.vtf -s 111

      4800 atoms
      1080 bonds
         0 angles
         0 dihedrals
         0 impropers

         3 atom types
         1 bond types

0.000 10.000 xlo xhi
0.000 10.000 ylo yhi
0.000 16.000 zlo zhi

Masses

    1 1.000000 # A
    2 1.000000 # B
    3 1.000000 # W

Bond Coeffs

    1 50.000000 0.500000

Atoms # full

      1     1     1        0.000000        5.068038        4.978877        0.626479 # A4B6
      2     1     1        0.000000        5.568038        4.978877        0.626479 # A4B6
      3     1     1        0.000000        6.068038        4.978877        0.626479 # A4B6
      4     1     1        0.000000        6.418038        5.328877        0.626479 # A4B6
      5     1     2        0.000000        6.768038        4.978877        0.626479 # A4B6
      6     1     2        0.000000        7.118038        5.328877        0.626479 # A4B6
      7     1     2        0.000000        7.468038        4.978877        0.626479 # A4B6
      8     1     2        0.000000        7.818038        5.328877        0.626479 # A4B6
      9     1     2        0.000000        7.818038        5.828877        0.626479 # A4B6
     10     1     2        0.000000        7.318038        5.828877        0.626479 # A4B6
     11     3     1        0.000000        5.040195        5.061935        0.071036 # A4B6
     12     3     1        0.000000        5.290195        5.494948        0.071036 # A4B6
     13     3     1        0.000000        5.540195        5.927961        0.071036 # A4B6
     14     3     1        0.000000        5.412086        6.406070        0.071036 # A4B6
     15     3     2        0.000000        5.890195        6.534178        0.071036 # A4B6
     16     3     2        0.000000        5.762086        7.012287        0.071036 # A4B6
     17     3     2        0.000000        6.240195        7.140396        0.071036 # A4B6
     18     3     2        0.000000        6.112086        7.618505        0.071036 # A4B6
     19     3     2        0.000000        5.679074        7.868505        0.071036 # A4B6
     20     3     2        0.000000        5.429074        7.435492        0.071036 # A4B6
     21     5     1        0.000000        5.040195        5.061935        0.071036 # A4B6
     22     5     1        0.000000        4.790195        5.494948        0.071036 # A4B6
     23     5     1        0.000000        4.540195        5.927961        0.071036 # A4B6
     24     5     1        0.000000        4.062086        6.056070        0.071036 # A4B6
     25     5     2        0.000000        4.190195        6.534178        0.071036 # A4B6
     26     5     2        0.000000        3.712086        6.662287        0.071036 # A4B6
     27     5     2        0.000000        3.840195        7.140396        0.071036 # A4B6
     28     5     2        0.000000        3.362086        7.268505        0.071036 # A4B6
     29     5     2        0.000000        2.929074        7.018505        0.071036 # A4B6
     30     5     2        0.000000        3.179074        6.585492        0.071036 # A4B6
     31     7     1        0.000000        5.040195        5.061935        0.071036 # A4B6
     32     7     1        0.000000        4.540195        5.061935        0.071036 # A4B6
     33     7     1        0.000000        4.040195        5.061935        0.071036 # A4B6
     34     7     1        0.000000        3.690195        4.711935        0.071036 # A4B6
     35     7     2        0.000000        3.340195        5.061935        0.071036 # A4B6
     36     7     2        0.000000        2.990195        4.711935        0.071036 # A4B6
     37     7     2        0.000000        2.640195        5.061935        0.071036 # A4B6
     38     7     2        0.000000        2.290195        4.711935        0.071036 # A4B6
     39     7     2        0.000000        2.290195        4.211935        0.071036 # A4B6
     40     7     2        0.000000        2.790195        4.211935        0.071036 # A4B6
     41     9     1        0.000000        5.040195        5.061935        0.071036 # A4B6
     42     9     1        0.000000        4.790195        4.628923        0.071036 # A4B6
     43     9     1        0.000000        4.540195        4.195910        0.071036 # A4B6
     44     9     1        0.000000        4.668304        3.717801        0.071036 # A4B6
     45     9     2        0.000000        4.190195        3.589692        0.071036 # A4B6
     46     9     2        0.000000        4.318304        3.111583        0.071036 # A4B6
     47     9     2        0.000000        3.840195        2.983474        0.071036 # A4B6
     48     9     2        0.000000        3.968304        2.505365        0.071036 # A4B6
     49     9     2        0.000000        4.401317        2.255365        0.071036 # A4B6
     50     9     2        0.000000        4.651317        2.688378        0.071036 # A4B6
     51    11     1        0.000000        5.040195        5.061935        0.071036 # A4B6
     52    11     1        0.000000        5.290195        4.628923        0.071036 # A4B6
     53    11     1        0.000000        5.540195        4.195910        0.071036 # A4B6
     54    11     1        0.000000        6.018304        4.067801        0.071036 # A4B6
     55    11     2        0.000000        5.890195        3.589692        0.071036 # A4B6
     56    11     2        0.000000        6.368304        3.461583        0.071036 # A4B6
     57    11     2        0.000000        6.240195        2.983474        0.071036 # A4B6
     58    11     2        0.000000        6.718304        2.855365        0.071036 # A4B6
     59    11     2        0.000000        7.151317        3.105365        0.071036 # A4B6
     60    11     2        0.000000        6.901317        3.538378        0.071036 # A4B6
     61    13     1        0.000000        5.040195        5.061935        0.871036 # A4B6
     62    13     1        0.000000        5.493349        5.273244        0.871036 # A4B6
     63    13     1        0.000000        5.946503        5.484554        0.871036 # A4B6
     64    13     1        0.000000        6.115794        5.949678        0.871036 # A4B6
     65    13     2        0.000000        6.580919        5.780386        0.871036 # A4B6
     66    13     2        0.000000        6.750210        6.245510        0.871036 # A4B6
     67    13     2        0.000000        7.215334        6.076219        0.871036 # A4B6
     68    13     2        0.000000        7.384625        6.541343        0.871036 # A4B6
     69    13     2        0.000000        7.173316        6.994497        0.871036 # A4B6
     70    13     2        0.000000        6.720162        6.783188        0.871036 # A4B6
     71    15     1        0.000000        5.012276        4.944997        1.114473 # A4B6
     72    15     1        0.000000        5.055854        5.443094        1.114473 # A4B6
     73    15     1        0.000000        5.099432        5.941191        1.114473 # A4B6
     74    15     1        0.000000        4.781268        6.320364        1.114473 # A4B6
     75    15     2        0.000000        5.160441        6.638528        1.114473 # A4B6
     76    15     2        0.000000        4.842277        7.017700        1.114473 # A4B6
     77    15     2        0.000000        5.221450        7.335864        1.114473 # A4B6
     78    15     2        0.000000        4.903286        7.715037        1.114473 # A4B6
     79    15     2        0.000000        4.405189        7.758614        1.114473 # A4B6
     80    15     2        0.000000        4.361611        7.260517        1.114473 # A4B6
     81    17     1        0.000000        5.083292        4.926796        0.952969 # A4B6
     82    17     1        0.000000        4.673716        5.213585        0.952969 # A4B6
     83    17     1        0.000000        4.264140        5.500373        0.952969 # A4B6
     84    17     1        0.000000        3.776685        5.414421        0.952969 # A4B6
     85    17     2        0.000000        3.690733        5.901876        0.952969 # A4B6
     86    17     2        0.000000        3.203278        5.815925        0.952969 # A4B6
     87    17     2        0.000000        3.117327        6.303380        0.952969 # A4B6
     88    17     2        0.000000        2.629872        6.217428        0.952969 # A4B6
     89    17     2        0.000000        2.343083        5.807852        0.952969 # A4B6
     90    17     2        0.000000        2.752660        5.521064        0.952969 # A4B6
     91    19     1        0.000000        4.954949        4.909294        1.594204 # A4B6
     92    19     1        0.000000        4.501795        4.697984        1.594204 # A4B6
     93    19     1        0.000000        4.048641        4.486675        1.594204 # A4B6
     94    19     1        0.000000        3.879350        4.021551        1.594204 # A4B6
     95    19     2        0.000000        3.414226        4.190843        1.594204 # A4B6
     96    19     2        0.000000        3.244935        3.725718        1.594204 # A4B6
     97    19     2        0.000000        2.779810        3.895010        1.594204 # A4B6
     98    19     2        0.000000        2.610519        3.429886        1.594204 # A4B6
     99    19     2        0.000000        2.821828        2.976732        1.594204 # A4B6
    100    19     2        0.000000        3.274982        3.188041        1.594204 # A4B6
    101    21     1        0.000000        4.927088        5.092503        1.439782 # A4B6
    102    21     1        0.000000        4.883510        4.594406        1.439782 # A4B6
    103    21     1        0.000000        4.839932        4.096309        1.439782 # A4B6
    104    21     1        0.000000        5.158096        3.717136        1.439782 # A4B6
    105    21     2        0.000000        4.778923        3.398972        1.439782 # A4B6
    106    21     2        0.000000        5.097087        3.019800        1.439782 # A4B6
    107    21     2        0.000000        4.717914        2.701636        1.439782 # A4B6
    108    21     2        0.000000        5.036078        2.322463        1.439782 # A4B6
    109    21     2        0.000000        5.534175        2.278886        1.439782 # A4B6
    110    21     2        0.000000        5.577753        2.776983        1.439782 # A4B6
    111    23     1        0.000000        4.997381        5.073595        1.274073 # A4B6
    112    23     1        0.000000        5.406957        4.786807        1.274073 # A4B6
    113    23     1        0.000000        5.816533        4.500019        1.274073 # A4B6
    114    23     1        0.000000        6.303988        4.585971        1.274073 # A4B6
    115    23     2        0.000000        6.389939        4.098516        1.274073 # A4B6
    116    23     2        0.000000        6.877394        4.184467        1.274073 # A4B6
    117    23     2        0.000000        6.963346        3.697012        1.274073 # A4B6
    118    23     2        0.000000        7.450801        3.782963        1.274073 # A4B6
    119    23     2        0.000000        7.737589        4.192540        1.274073 # A4B6
    120    23     2        0.000000        7.328013        4.479328        1.274073 # A4B6
    121    25     1        0.000000        5.040195        5.061935        1.671036 # A4B6
    122    25     1        0.000000        5.361589        5.444957        1.671036 # A4B6
    123    25     1        0.000000        5.682983        5.827980        1.671036 # A4B6
    124    25     1        0.000000        5.639843        6.321071        1.671036 # A4B6
    125    25     2        0.000000        6.132934        6.364211        1.671036 # A4B6
    126    25     2        0.000000        6.089794        6.857302        1.671036 # A4B6
    127    25     2        0.000000        6.582886        6.900442        1.671036 # A4B6
    128    25     2        0.000000        6.539746        7.393533        1.671036 # A4B6
    129    25     2        0.000000        6.156723        7.714927        1.671036 # A4B6
    130    25     2        0.000000        5.835330        7.331905        1.671036 # A4B6
    131    27     1        0.000000        5.083292        4.926796        1.752969 # A4B6
    132    27     1        0.000000        4.912282        5.396643        1.752969 # A4B6
    133    27     1        0.000000        4.741271        5.866489        1.752969 # A4B6
    134    27     1        0.000000        4.292672        6.075674        1.752969 # A4B6
    135    27     2        0.000000        4.501857        6.524274        1.752969 # A4B6
    136    27     2        0.000000        4.053258        6.733459        1.752969 # A4B6
    137    27     2        0.000000        4.262443        7.182059        1.752969 # A4B6
    138    27     2        0.000000        3.813844        7.391244        1.752969 # A4B6
    139    27     2        0.000000        3.343997        7.220234        1.752969 # A4B6
    140    27     2        0.000000        3.515008        6.750388        1.752969 # A4B6
    141    29     1        0.000000        4.927088        5.092503        2.239782 # A4B6
    142    29     1        0.000000        4.434684        5.179327        2.239782 # A4B6
    143    29     1        0.000000        3.942280        5.266152        2.239782 # A4B6
    144    29     1        0.000000        3.536820        4.982246        2.239782 # A4B6
    145    29     2        0.000000        3.252915        5.387705        2.239782 # A4B6
    146    29     2        0.000000        2.847455        5.103799        2.239782 # A4B6
    147    29     2        0.000000        2.563549        5.509259        2.239782 # A4B6
    148    29     2        0.000000        2.158090        5.225353        2.239782 # A4B6
    149    29     2        0.000000        2.071265        4.732949        2.239782 # A4B6
    150    29     2        0.000000        2.563669        4.646125        2.239782 # A4B6
    151    31     1        0.000000        4.970552        5.057918        2.324661 # A4B6
    152    31     1        0.000000        4.649158        4.674896        2.324661 # A4B6
    153    31     1        0.000000        4.327765        4.291873        2.324661 # A4B6
    154    31     1        0.000000        4.370904        3.798782        2.324661 # A4B6
    155    31     2        0.000000        3.877813        3.755642        2.324661 # A4B6
    156    31     2        0.000000        3.920953        3.262551        2.324661 # A4B6
    157    31     2        0.000000        3.427862        3.219411        2.324661 # A4B6
    158    31     2        0.000000        3.471002        2.726320        2.324661 # A4B6
    159    31     2        0.000000        3.854024        2.404926        2.324661 # A4B6
    160    31     2        0.000000        4.175418        2.787948        2.324661 # A4B6
    161    33     1        0.000000        5.013162        5.022186        2.004614 # A4B6
    162    33     1        0.000000        5.184172        4.552340        2.004614 # A4B6
    163    33     1        0.000000        5.355182        4.082493        2.004614 # A4B6
    164    33     1        0.000000        5.803782        3.873308        2.004614 # A4B6
    165    33     2        0.000000        5.594596        3.424709        2.004614 # A4B6
    166    33     2        0.000000        6.043196        3.215523        2.004614 # A4B6
    167    33     2        0.000000        5.834010        2.766924        2.004614 # A4B6
    168    33     2        0.000000        6.282610        2.557738        2.004614 # A4B6
    169    33     2        0.000000        6.752456        2.728748        2.004614 # A4B6
    170    33     2        0.000000        6.581446        3.198595        2.004614 # A4B6
    171    35     1        0.000000        5.057120        4.988036        1.692095 # A4B6
    172    35     1        0.000000        5.549524        4.901211        1.692095 # A4B6
    173    35     1        0.000000        6.041928        4.814387        1.692095 # A4B6
    174    35     1        0.000000        6.447387        5.098293        1.692095 # A4B6
    175    35     2        0.000000        6.731293        4.692834        1.692095 # A4B6
    176    35     2        0.000000        7.136753        4.976739        1.692095 # A4B6
    177    35     2        0.000000        7.420659        4.571280        1.692095 # A4B6
    178    35     2        0.000000        7.826118        4.855186        1.692095 # A4B6
    179    35     2        0.000000        7.912942        5.347590        1.692095 # A4B6
    180    35     2        0.000000        7.420538        5.434414        1.692095 # A4B6
    181    37     1        0.000000        5.040195        5.061935        2.471036 # A4B6
    182    37     1        0.000000        5.169605        5.544898        2.471036 # A4B6
    183    37     1        0.000000        5.299014        6.027861        2.471036 # A4B6
    184    37     1        0.000000        5.051527        6.456522        2.471036 # A4B6
    185    37     2        0.000000        5.480188        6.704009        2.471036 # A4B6
    186    37     2        0.000000        5.232700        7.132670        2.471036 # A4B6
    187    37     2        0.000000        5.661361        7.380157        2.471036 # A4B6
    188    37     2        0.000000        5.413874        7.808818        2.471036 # A4B6
    189    37     2        0.000000        4.930911        7.938227        2.471036 # A4B6
    190    37     2        0.000000        4.801501        7.455265        2.471036 # A4B6
    191    39     1        0.000000        4.954949        4.909294        3.194204 # A4B6
    192    39     1        0.000000        4.601396        5.262847        3.194204 # A4B6
    193    39     1        0.000000        4.247842        5.616400        3.194204 # A4B6
    194    39     1        0.000000        3.752868        5.616400        3.194204 # A4B6
    195    39     2        0.000000        3.752868        6.111375        3.194204 # A4B6
    196    39     2        0.000000        3.257893        6.111375        3.194204 # A4B6
    197    39     2        0.000000        3.257893        6.606350        3.194204 # A4B6
    198    39     2        0.000000        2.762918        6.606350        3.194204 # A4B6
    199    39     2        0.000000        2.409365        6.252796        3.194204 # A4B6
    200    39     2        0.000000        2.762918        5.899243        3.194204 # A4B6
    201    41     1        0.000000        4.970552        5.057918        3.124661 # A4B6
    202    41     1        0.000000        4.487589        4.928508        3.124661 # A4B6
    203    41     1        0.000000        4.004626        4.799099        3.124661 # A4B6
    204    41     1        0.000000        3.757139        4.370438        3.124661 # A4B6
    205    41     2        0.000000        3.328478        4.617926        3.124661 # A4B6
    206    41     2        0.000000        3.080991        4.189265        3.124661 # A4B6
    207    41     2        0.000000        2.652330        4.436752        3.124661 # A4B6
    208    41     2        0.000000        2.404843        4.008092        3.124661 # A4B6
    209    41     2        0.000000        2.534252        3.525129        3.124661 # A4B6
    210    41     2        0.000000        3.017215        3.654538        3.124661 # A4B6
    211    43     1        0.000000        5.085269        5.005300        2.647825 # A4B6
    212    43     1        0.000000        4.955860        4.522337        2.647825 # A4B6
    213    43     1        0.000000        4.826450        4.039374        2.647825 # A4B6
    214    43     1        0.000000        5.073937        3.610713        2.647825 # A4B6
    215    43     2        0.000000        4.645277        3.363226        2.647825 # A4B6
    216    43     2        0.000000        4.892764        2.934565        2.647825 # A4B6
    217    43     2        0.000000        4.464103        2.687078        2.647825 # A4B6
    218    43     2        0.000000        4.711591        2.258417        2.647825 # A4B6
    219    43     2        0.000000        5.194554        2.129008        2.647825 # A4B6
    220    43     2        0.000000        5.323963        2.611971        2.647825 # A4B6
    221    45     1        0.000000        5.099900        4.952663        2.572678 # A4B6
    222    45     1        0.000000        5.453453        4.599110        2.572678 # A4B6
    223    45     1        0.000000        5.807006        4.245556        2.572678 # A4B6
    224    45     1        0.000000        6.301981        4.245556        2.572678 # A4B6
    225    45     2        0.000000        6.301981        3.750581        2.572678 # A4B6
    226    45     2        0.000000        6.796956        3.750581        2.572678 # A4B6
    227    45     2        0.000000        6.796956        3.255607        2.572678 # A4B6
    228    45     2        0.000000        7.291931        3.255607        2.572678 # A4B6
    229    45     2        0.000000        7.645484        3.609160        2.572678 # A4B6
    230    45     2        0.000000        7.291931        3.962713        2.572678 # A4B6
    231    47     1        0.000000        5.014359        4.900370        2.498167 # A4B6
    232    47     1        0.000000        5.497322        5.029780        2.498167 # A4B6
    233    47     1        0.000000        5.980285        5.159190        2.498167 # A4B6
    234    47     1        0.000000        6.227772        5.587850        2.498167 # A4B6
    235    47     2        0.000000        6.656433        5.340363        2.498167 # A4B6
    236    47     2        0.000000        6.903920        5.769024        2.498167 # A4B6
    237    47     2        0.000000        7.332581        5.521536        2.498167 # A4B6
    238    47     2        0.000000        7.580068        5.950197        2.498167 # A4B6
    239    47     2        0.000000        7.450659        6.433160        2.498167 # A4B6
    240    47     2        0.000000        6.967696        6.303750        2.498167 # A4B6
    241    49     1        0.000000        5.040195        5.061935        3.271036 # A4B6
    242    49     1        0.000000        4.953371        5.554339        3.271036 # A4B6
    243    49     1        0.000000        4.866547        6.046743        3.271036 # A4B6
    244    49     1        0.000000        4.461088        6.330649        3.271036 # A4B6
    245    49     2        0.000000        4.744993        6.736108        3.271036 # A4B6
    246    49     2        0.000000        4.339534        7.020014        3.271036 # A4B6
    247    49     2        0.000000        4.623440        7.425474        3.271036 # A4B6
    248    49     2        0.000000        4.217980        7.709380        3.271036 # A4B6
    249    49     2        0.000000        3.725576        7.622556        3.271036 # A4B6
    250    49     2        0.000000        3.812400        7.130152        3.271036 # A4B6
    251    51     1        0.000000        4.927088        5.092503        3.839782 # A4B6
    252    51     1        0.000000        4.457241        5.263513        3.839782 # A4B6
    253    51     1        0.000000        3.987395        5.434523        3.839782 # A4B6
    254    51     1        0.000000        3.538796        5.225338        3.839782 # A4B6
    255    51     2        0.000000        3.329610        5.673938        3.839782 # A4B6
    256    51     2        0.000000        2.881011        5.464752        3.839782 # A4B6
    257    51     2        0.000000        2.671825        5.913352        3.839782 # A4B6
    258    51     2        0.000000        2.223226        5.704166        3.839782 # A4B6
    259    51     2        0.000000        2.052216        5.234320        3.839782 # A4B6
    260    51     2        0.000000        2.522062        5.063310        3.839782 # A4B6
    261    53     1        0.000000        5.013162        5.022186        3.604614 # A4B6
    262    53     1        0.000000        4.630140        4.700792        3.604614 # A4B6
    263    53     1        0.000000        4.247118        4.379398        3.604614 # A4B6
    264    53     1        0.000000        4.203978        3.886307        3.604614 # A4B6
    265    53     2        0.000000        3.710887        3.929447        3.604614 # A4B6
    266    53     2        0.000000        3.667747        3.436356        3.604614 # A4B6
    267    53     2        0.000000        3.174655        3.479496        3.604614 # A4B6
    268    53     2        0.000000        3.131516        2.986405        3.604614 # A4B6
    269    53     2        0.000000        3.452909        2.603382        3.604614 # A4B6
    270    53     2        0.000000        3.835932        2.924776        3.604614 # A4B6
    271    55     1        0.000000        5.099900        4.952663        3.372678 # A4B6
    272    55     1        0.000000        5.186724        4.460259        3.372678 # A4B6
    273    55     1        0.000000        5.273548        3.967855        3.372678 # A4B6
    274    55     1        0.000000        5.679007        3.683949        3.372678 # A4B6
    275    55     2        0.000000        5.395102        3.278490        3.372678 # A4B6
    276    55     2        0.000000        5.800561        2.994584        3.372678 # A4B6
    277    55     2        0.000000        5.516655        2.589124        3.372678 # A4B6
    278    55     2        0.000000        5.922115        2.305219        3.372678 # A4B6
    279    55     2        0.000000        6.414519        2.392043        3.372678 # A4B6
    280    55     2        0.000000        6.327695        2.884446        3.372678 # A4B6
    281    57     1        0.000000        5.085815        5.082599        3.939090 # A4B6
    282    57     1        0.000000        5.555661        4.911589        3.939090 # A4B6
    283    57     1        0.000000        6.025507        4.740579        3.939090 # A4B6
    284    57     1        0.000000        6.474107        4.949764        3.939090 # A4B6
    285    57     2        0.000000        6.683292        4.501165        3.939090 # A4B6
    286    57     2        0.000000        7.131891        4.710350        3.939090 # A4B6
    287    57     2        0.000000        7.341077        4.261751        3.939090 # A4B6
    288    57     2        0.000000        7.789676        4.470936        3.939090 # A4B6
    289    57     2        0.000000        7.960686        4.940783        3.939090 # A4B6
    290    57     2        0.000000        7.490840        5.111793        3.939090 # A4B6
    291    59     1        0.000000        5.073005        5.013279        3.707083 # A4B6
    292    59     1        0.000000        5.456028        5.334673        3.707083 # A4B6
    293    59     1        0.000000        5.839050        5.656066        3.707083 # A4B6
    294    59     1        0.000000        5.882190        6.149158        3.707083 # A4B6
    295    59     2        0.000000        6.375281        6.106018        3.707083 # A4B6
    296    59     2        0.000000        6.418421        6.599109        3.707083 # A4B6
    297    59     2        0.000000        6.911512        6.555969        3.707083 # A4B6
    298    59     2        0.000000        6.954652        7.049060        3.707083 # A4B6
    299    59     2        0.000000        6.633258        7.432082        3.707083 # A4B6
    300    59     2        0.000000        6.250236        7.110689        3.707083 # A4B6
    301    61     1        0.000000        5.040195        5.061935        4.071036 # A4B6
    302    61     1        0.000000        4.753407        5.471511        4.071036 # A4B6
    303    61     1        0.000000        4.466619        5.881087        4.071036 # A4B6
    304    61     1        0.000000        3.979164        5.967039        4.071036 # A4B6
    305    61     2        0.000000        4.065115        6.454494        4.071036 # A4B6
    306    61     2        0.000000        3.577660        6.540445        4.071036 # A4B6
    307    61     2        0.000000        3.663612        7.027900        4.071036 # A4B6
    308    61     2        0.000000        3.176157        7.113852        4.071036 # A4B6
    309    61     2        0.000000        2.766581        6.827063        4.071036 # A4B6
    310    61     2        0.000000        3.053369        6.417487        4.071036 # A4B6
    311    63     1        0.000000        4.997381        5.073595        4.474073 # A4B6
    312    63     1        0.000000        4.499283        5.030018        4.474073 # A4B6
    313    63     1        0.000000        4.001186        4.986440        4.474073 # A4B6
    314    63     1        0.000000        3.683022        4.607267        4.474073 # A4B6
    315    63     2        0.000000        3.303850        4.925431        4.474073 # A4B6
    316    63     2        0.000000        2.985686        4.546258        4.474073 # A4B6
    317    63     2        0.000000        2.606514        4.864422        4.474073 # A4B6
    318    63     2        0.000000        2.288350        4.485249        4.474073 # A4B6
    319    63     2        0.000000        2.331928        3.987152        4.474073 # A4B6
    320    63     2        0.000000        2.830025        4.030730        4.474073 # A4B6
    321    65     1        0.000000        5.057120        4.988036        4.092095 # A4B6
    322    65     1        0.000000        4.845811        4.534882        4.092095 # A4B6
    323    65     1        0.000000        4.634502        4.081728        4.092095 # A4B6
    324    65     1        0.000000        4.803793        3.616604        4.092095 # A4B6
    325    65     2        0.000000        4.338669        3.447312        4.092095 # A4B6
    326    65     2        0.000000        4.507960        2.982188        4.092095 # A4B6
    327    65     2        0.000000        4.042836        2.812897        4.092095 # A4B6
    328    65     2        0.000000        4.212128        2.347773        4.092095 # A4B6
    329    65     2        0.000000        4.665281        2.136464        4.092095 # A4B6
    330    65     2        0.000000        4.876591        2.589618        4.092095 # A4B6
    331    67     1        0.000000        5.014359        4.900370        4.098167 # A4B6
    332    67     1        0.000000        5.301147        4.490794        4.098167 # A4B6
    333    67     1        0.000000        5.587935        4.081218        4.098167 # A4B6
    334    67     1        0.000000        6.075390        3.995267        4.098167 # A4B6
    335    67     2        0.000000        5.989439        3.507812        4.098167 # A4B6
    336    67     2        0.000000        6.476894        3.421861        4.098167 # A4B6
    337    67     2        0.000000        6.390942        2.934406        4.098167 # A4B6
    338    67     2        0.000000        6.878397        2.848454        4.098167 # A4B6
    339    67     2        0.000000        7.287973        3.135242        4.098167 # A4B6
    340    67     2        0.000000        7.001185        3.544818        4.098167 # A4B6
    341    69     1        0.000000        5.073005        5.013279        4.507083 # A4B6
    342    69     1        0.000000        5.571103        5.056857        4.507083 # A4B6
    343    69     1        0.000000        6.069200        5.100435        4.507083 # A4B6
    344    69     1        0.000000        6.387364        5.479607        4.507083 # A4B6
    345    69     2        0.000000        6.766536        5.161444        4.507083 # A4B6
    346    69     2        0.000000        7.084700        5.540616        4.507083 # A4B6
    347    69     2        0.000000        7.463873        5.222453        4.507083 # A4B6
    348    69     2        0.000000        7.782036        5.601625        4.507083 # A4B6
    349    69     2        0.000000        7.738458        6.099723        4.507083 # A4B6
    350    69     2        0.000000        7.240361        6.056145        4.507083 # A4B6
    351    71     1        0.000000        5.031967        4.927079        4.121792 # A4B6
    352    71     1        0.000000        5.243276        5.380233        4.121792 # A4B6
    353    71     1        0.000000        5.454585        5.833387        4.121792 # A4B6
    354    71     1        0.000000        5.285294        6.298511        4.121792 # A4B6
    355    71     2        0.000000        5.750418        6.467803        4.121792 # A4B6
    356    71     2        0.000000        5.581126        6.932927        4.121792 # A4B6
    357    71     2        0.000000        6.046250        7.102218        4.121792 # A4B6
    358    71     2        0.000000        5.876959        7.567342        4.121792 # A4B6
    359    71     2        0.000000        5.423805        7.778651        4.121792 # A4B6
    360    71     2        0.000000        5.212496        7.325497        4.121792 # A4B6
    361    73     1        0.000000        5.040195        5.061935        4.871036 # A4B6
    362    73     1        0.000000        4.607183        5.311935        4.871036 # A4B6
    363    73     1        0.000000        4.174170        5.561935        4.871036 # A4B6
    364    73     1        0.000000        3.696061        5.433826        4.871036 # A4B6
    365    73     2        0.000000        3.567952        5.911935        4.871036 # A4B6
    366    73     2        0.000000        3.089843        5.783826        4.871036 # A4B6
    367    73     2        0.000000        2.961734        6.261935        4.871036 # A4B6
    368    73     2        0.000000        2.483625        6.133826        4.871036 # A4B6
    369    73     2        0.000000        2.233625        5.700814        4.871036 # A4B6
    370    73     2        0.000000        2.666638        5.450814        4.871036 # A4B6
    371    75     1        0.000000        4.970552        5.057918        5.524661 # A4B6
    372    75     1        0.000000        4.537539        4.807918        5.524661 # A4B6
    373    75     1        0.000000        4.104527        4.557918        5.524661 # A4B6
    374    75     1        0.000000        3.976418        4.079809        5.524661 # A4B6
    375    75     2        0.000000        3.498309        4.207918        5.524661 # A4B6
    376    75     2        0.000000        3.370200        3.729809        5.524661 # A4B6
    377    75     2        0.000000        2.892091        3.857918        5.524661 # A4B6
    378    75     2        0.000000        2.763982        3.379809        5.524661 # A4B6
    379    75     2        0.000000        3.013982        2.946796        5.524661 # A4B6
    380    75     2        0.000000        3.446995        3.196796        5.524661 # A4B6
    381    77     1        0.000000        5.099900        4.952663        4.972678 # A4B6
    382    77     1        0.000000        5.099900        4.452663        4.972678 # A4B6
    383    77     1        0.000000        5.099900        3.952663        4.972678 # A4B6
    384    77     1        0.000000        5.449900        3.602663        4.972678 # A4B6
    385    77     2        0.000000        5.099900        3.252663        4.972678 # A4B6
    386    77     2        0.000000        5.449900        2.902663        4.972678 # A4B6
    387    77     2        0.000000        5.099900        2.552663        4.972678 # A4B6
    388    77     2        0.000000        5.449900        2.202663        4.972678 # A4B6
    389    77     2        0.000000        5.949900        2.202663        4.972678 # A4B6
    390    77     2        0.000000        5.949900        2.702663        4.972678 # A4B6
    391    79     1        0.000000        4.929762        5.048024        5.224936 # A4B6
    392    79     1        0.000000        5.362775        4.798024        5.224936 # A4B6
    393    79     1        0.000000        5.795788        4.548024        5.224936 # A4B6
    394    79     1        0.000000        6.273897        4.676133        5.224936 # A4B6
    395    79     2        0.000000        6.402006        4.198024        5.224936 # A4B6
    396    79     2        0.000000        6.880115        4.326133        5.224936 # A4B6
    397    79     2        0.000000        7.008223        3.848024        5.224936 # A4B6
    398    79     2        0.000000        7.486332        3.976133        5.224936 # A4B6
    399    79     2        0.000000        7.736332        4.409145        5.224936 # A4B6
    400    79     2        0.000000        7.303320        4.659145        5.224936 # A4B6
    401    81     1        0.000000        5.059109        4.943062        5.074097 # A4B6
    402    81     1        0.000000        5.492122        5.193062        5.074097 # A4B6
    403    81     1        0.000000        5.925135        5.443062        5.074097 # A4B6
    404    81     1        0.000000        6.053243        5.921171        5.074097 # A4B6
    405    81     2        0.000000        6.531352        5.793062        5.074097 # A4B6
    406    81     2        0.000000        6.659461        6.271171        5.074097 # A4B6
    407    81     2        0.000000        7.137570        6.143062        5.074097 # A4B6
    408    81     2        0.000000        7.265679        6.621171        5.074097 # A4B6
    409    81     2        0.000000        7.015679        7.054184        5.074097 # A4B6
    410    81     2        0.000000        6.582666        6.804184        5.074097 # A4B6
    411    83     1        0.000000        4.989935        5.039807        5.332190 # A4B6
    412    83     1        0.000000        4.989935        5.539807        5.332190 # A4B6
    413    83     1        0.000000        4.989935        6.039807        5.332190 # A4B6
    414    83     1        0.000000        4.639935        6.389807        5.332190 # A4B6
    415    83     2        0.000000        4.989935        6.739807        5.332190 # A4B6
    416    83     2        0.000000        4.639935        7.089807        5.332190 # A4B6
    417    83     2        0.000000        4.989935        7.439807        5.332190 # A4B6
    418    83     2        0.000000        4.639935        7.789807        5.332190 # A4B6
    419    83     2        0.000000        4.139935        7.789807        5.332190 # A4B6
    420    83     2        0.000000        4.139935        7.289807        5.332190 # A4B6
    421    85     1        0.000000        5.040195        5.061935        5.671036 # A4B6
    422    85     1        0.000000        4.542098        5.105513        5.671036 # A4B6
    423    85     1        0.000000        4.044001        5.149091        5.671036 # A4B6
    424    85     1        0.000000        3.664828        4.830927        5.671036 # A4B6
    425    85     2        0.000000        3.346664        5.210100        5.671036 # A4B6
    426    85     2        0.000000        2.967492        4.891936        5.671036 # A4B6
    427    85     2        0.000000        2.649328        5.271109        5.671036 # A4B6
    428    85     2        0.000000        2.270155        4.952945        5.671036 # A4B6
    429    85     2        0.000000        2.226577        4.454848        5.671036 # A4B6
    430    85     2        0.000000        2.724675        4.411270        5.671036 # A4B6
    431    87     1        0.000000        4.941393        5.039903        5.762745 # A4B6
    432    87     1        0.000000        4.654605        4.630327        5.762745 # A4B6
    433    87     1        0.000000        4.367817        4.220751        5.762745 # A4B6
    434    87     1        0.000000        4.453768        3.733296        5.762745 # A4B6
    435    87     2        0.000000        3.966313        3.647345        5.762745 # A4B6
    436    87     2        0.000000        4.052265        3.159890        5.762745 # A4B6
    437    87     2        0.000000        3.564810        3.073938        5.762745 # A4B6
    438    87     2        0.000000        3.650761        2.586483        5.762745 # A4B6
    439    87     2        0.000000        4.060337        2.299695        5.762745 # A4B6
    440    87     2        0.000000        4.347125        2.709271        5.762745 # A4B6
    441    89     1        0.000000        4.943087        4.917907        5.857218 # A4B6
    442    89     1        0.000000        5.154397        4.464753        5.857218 # A4B6
    443    89     1        0.000000        5.365706        4.011599        5.857218 # A4B6
    444    89     1        0.000000        5.830830        3.842308        5.857218 # A4B6
    445    89     2        0.000000        5.661539        3.377184        5.857218 # A4B6
    446    89     2        0.000000        6.126663        3.207893        5.857218 # A4B6
    447    89     2        0.000000        5.957371        2.742769        5.857218 # A4B6
    448    89     2        0.000000        6.422495        2.573477        5.857218 # A4B6
    449    89     2        0.000000        6.875649        2.784786        5.857218 # A4B6
    450    89     2        0.000000        6.664340        3.237940        5.857218 # A4B6
    451    91     1        0.000000        5.045516        4.996843        6.354615 # A4B6
    452    91     1        0.000000        5.543614        4.953265        6.354615 # A4B6
    453    91     1        0.000000        6.041711        4.909687        6.354615 # A4B6
    454    91     1        0.000000        6.420884        5.227851        6.354615 # A4B6
    455    91     2        0.000000        6.739047        4.848678        6.354615 # A4B6
    456    91     2        0.000000        7.118220        5.166842        6.354615 # A4B6
    457    91     2        0.000000        7.436384        4.787669        6.354615 # A4B6
    458    91     2        0.000000        7.815556        5.105833        6.354615 # A4B6
    459    91     2        0.000000        7.859134        5.603930        6.354615 # A4B6
    460    91     2        0.000000        7.361037        5.647508        6.354615 # A4B6
    461    93     1        0.000000        4.945993        5.073952        6.043797 # A4B6
    462    93     1        0.000000        5.232782        5.483528        6.043797 # A4B6
    463    93     1        0.000000        5.519570        5.893104        6.043797 # A4B6
    464    93     1        0.000000        5.433618        6.380559        6.043797 # A4B6
    465    93     2        0.000000        5.921073        6.466510        6.043797 # A4B6
    466    93     2        0.000000        5.835122        6.953965        6.043797 # A4B6
    467    93     2        0.000000        6.322577        7.039917        6.043797 # A4B6
    468    93     2        0.000000        6.236625        7.527372        6.043797 # A4B6
    469    93     2        0.000000        5.827049        7.814160        6.043797 # A4B6
    470    93     2        0.000000        5.540261        7.404584        6.043797 # A4B6
    471    95     1        0.000000        4.947882        5.052228        5.739617 # A4B6
    472    95     1        0.000000        4.736573        5.505382        5.739617 # A4B6
    473    95     1        0.000000        4.525264        5.958536        5.739617 # A4B6
    474    95     1        0.000000        4.060140        6.127828        5.739617 # A4B6
    475    95     2        0.000000        4.229431        6.592952        5.739617 # A4B6
    476    95     2        0.000000        3.764307        6.762243        5.739617 # A4B6
    477    95     2        0.000000        3.933599        7.227367        5.739617 # A4B6
    478    95     2        0.000000        3.468475        7.396658        5.739617 # A4B6
    479    95     2        0.000000        3.015321        7.185349        5.739617 # A4B6
    480    95     2        0.000000        3.226630        6.732195        5.739617 # A4B6
    481    97     1        0.000000        5.040195        5.061935        6.471036 # A4B6
    482    97     1        0.000000        4.570349        4.890925        6.471036 # A4B6
    483    97     1        0.000000        4.100503        4.719915        6.471036 # A4B6
    484    97     1        0.000000        3.891317        4.271316        6.471036 # A4B6
    485    97     2        0.000000        3.442718        4.480501        6.471036 # A4B6
    486    97     2        0.000000        3.233532        4.031902        6.471036 # A4B6
    487    97     2        0.000000        2.784933        4.241087        6.471036 # A4B6
    488    97     2        0.000000        2.575748        3.792487        6.471036 # A4B6
    489    97     2        0.000000        2.746758        3.322641        6.471036 # A4B6
    490    97     2        0.000000        3.216604        3.493651        6.471036 # A4B6
    491    99     1        0.000000        5.013162        5.022186        6.804614 # A4B6
    492    99     1        0.000000        4.926338        4.529782        6.804614 # A4B6
    493    99     1        0.000000        4.839514        4.037378        6.804614 # A4B6
    494    99     1        0.000000        5.123420        3.631919        6.804614 # A4B6
    495    99     2        0.000000        4.717960        3.348013        6.804614 # A4B6
    496    99     2        0.000000        5.001866        2.942553        6.804614 # A4B6
    497    99     2        0.000000        4.596407        2.658647        6.804614 # A4B6
    498    99     2        0.000000        4.880312        2.253188        6.804614 # A4B6
    499    99     2        0.000000        5.372716        2.166364        6.804614 # A4B6
    500    99     2        0.000000        5.459540        2.658768        6.804614 # A4B6
    501   101     1        0.000000        5.085815        5.082599        7.139090 # A4B6
    502   101     1        0.000000        5.468837        4.761205        7.139090 # A4B6
    503   101     1        0.000000        5.851859        4.439812        7.139090 # A4B6
    504   101     1        0.000000        6.344950        4.482951        7.139090 # A4B6
    505   101     2        0.000000        6.388090        3.989860        7.139090 # A4B6
    506   101     2        0.000000        6.881181        4.033000        7.139090 # A4B6
    507   101     2        0.000000        6.924321        3.539909        7.139090 # A4B6
    508   101     2        0.000000        7.417412        3.583049        7.139090 # A4B6
    509   101     2        0.000000        7.738806        3.966071        7.139090 # A4B6
    510   101     2        0.000000        7.355784        4.287465        7.139090 # A4B6
    511   103     1        0.000000        5.059109        4.943062        6.674097 # A4B6
    512   103     1        0.000000        5.528955        5.114072        6.674097 # A4B6
    513   103     1        0.000000        5.998802        5.285082        6.674097 # A4B6
    514   103     1        0.000000        6.207987        5.733682        6.674097 # A4B6
    515   103     2        0.000000        6.656587        5.524496        6.674097 # A4B6
    516   103     2        0.000000        6.865772        5.973096        6.674097 # A4B6
    517   103     2        0.000000        7.314371        5.763910        6.674097 # A4B6
    518   103     2        0.000000        7.523557        6.212510        6.674097 # A4B6
    519   103     2        0.000000        7.352547        6.682356        6.674097 # A4B6
    520   103     2        0.000000        6.882700        6.511346        6.674097 # A4B6
    521   105     1        0.000000        4.933794        4.905718        7.018248 # A4B6
    522   105     1        0.000000        5.020618        5.398121        7.018248 # A4B6
    523   105     1        0.000000        5.107442        5.890525        7.018248 # A4B6
    524   105     1        0.000000        4.823536        6.295985        7.018248 # A4B6
    525   105     2        0.000000        5.228996        6.579891        7.018248 # A4B6
    526   105     2        0.000000        4.945090        6.985350        7.018248 # A4B6
    527   105     2        0.000000        5.350550        7.269256        7.018248 # A4B6
    528   105     2        0.000000        5.066644        7.674716        7.018248 # A4B6
    529   105     2        0.000000        4.574240        7.761540        7.018248 # A4B6
    530   105     2        0.000000        4.487416        7.269136        7.018248 # A4B6
    531   107     1        0.000000        4.906694        4.965993        6.952509 # A4B6
    532   107     1        0.000000        4.523672        5.287387        6.952509 # A4B6
    533   107     1        0.000000        4.140650        5.608780        6.952509 # A4B6
    534   107     1        0.000000        3.647558        5.565641        6.952509 # A4B6
    535   107     2        0.000000        3.604418        6.058732        6.952509 # A4B6
    536   107     2        0.000000        3.111327        6.015592        6.952509 # A4B6
    537   107     2        0.000000        3.068187        6.508683        6.952509 # A4B6
    538   107     2        0.000000        2.575096        6.465543        6.952509 # A4B6
    539   107     2        0.000000        2.253702        6.082521        6.952509 # A4B6
    540   107     2        0.000000        2.636725        5.761127        6.952509 # A4B6
    541   109     1        0.000000        5.040195        5.061935        7.271036 # A4B6
    542   109     1        0.000000        4.686642        4.708382        7.271036 # A4B6
    543   109     1        0.000000        4.333088        4.354828        7.271036 # A4B6
    544   109     1        0.000000        4.333088        3.859854        7.271036 # A4B6
    545   109     2        0.000000        3.838114        3.859854        7.271036 # A4B6
    546   109     2        0.000000        3.838114        3.364879        7.271036 # A4B6
    547   109     2        0.000000        3.343139        3.364879        7.271036 # A4B6
    548   109     2        0.000000        3.343139        2.869904        7.271036 # A4B6
    549   109     2        0.000000        3.696692        2.516351        7.271036 # A4B6
    550   109     2        0.000000        4.050246        2.869904        7.271036 # A4B6
    551   111     1        0.000000        5.085269        5.005300        7.447825 # A4B6
    552   111     1        0.000000        5.214679        4.522337        7.447825 # A4B6
    553   111     1        0.000000        5.344088        4.039374        7.447825 # A4B6
    554   111     1        0.000000        5.772749        3.791887        7.447825 # A4B6
    555   111     2        0.000000        5.525261        3.363226        7.447825 # A4B6
    556   111     2        0.000000        5.953922        3.115739        7.447825 # A4B6
    557   111     2        0.000000        5.706435        2.687078        7.447825 # A4B6
    558   111     2        0.000000        6.135095        2.439591        7.447825 # A4B6
    559   111     2        0.000000        6.618058        2.569000        7.447825 # A4B6
    560   111     2        0.000000        6.488649        3.051963        7.447825 # A4B6
    561   113     1        0.000000        4.929762        5.048024        7.624936 # A4B6
    562   113     1        0.000000        5.412725        4.918614        7.624936 # A4B6
    563   113     1        0.000000        5.895688        4.789205        7.624936 # A4B6
    564   113     1        0.000000        6.324349        5.036692        7.624936 # A4B6
    565   113     2        0.000000        6.571836        4.608031        7.624936 # A4B6
    566   113     2        0.000000        7.000497        4.855519        7.624936 # A4B6
    567   113     2        0.000000        7.247984        4.426858        7.624936 # A4B6
    568   113     2        0.000000        7.676645        4.674346        7.624936 # A4B6
    569   113     2        0.000000        7.806055        5.157308        7.624936 # A4B6
    570   113     2        0.000000        7.323092        5.286718        7.624936 # A4B6
    571   115     1        0.000000        5.075198        4.992384        7.805275 # A4B6
    572   115     1        0.000000        5.428751        5.345937        7.805275 # A4B6
    573   115     1        0.000000        5.782305        5.699491        7.805275 # A4B6
    574   115     1        0.000000        5.782305        6.194466        7.805275 # A4B6
    575   115     2        0.000000        6.277279        6.194466        7.805275 # A4B6
    576   115     2        0.000000        6.277279        6.689440        7.805275 # A4B6
    577   115     2        0.000000        6.772254        6.689440        7.805275 # A4B6
    578   115     2        0.000000        6.772254        7.184415        7.805275 # A4B6
    579   115     2        0.000000        6.418701        7.537968        7.805275 # A4B6
    580   115     2        0.000000        6.065147        7.184415        7.805275 # A4B6
    581   117     1        0.000000        5.019645        4.935051        7.581346 # A4B6
    582   117     1        0.000000        4.890236        5.418014        7.581346 # A4B6
    583   117     1        0.000000        4.760826        5.900977        7.581346 # A4B6
    584   117     1        0.000000        4.332166        6.148464        7.581346 # A4B6
    585   117     2        0.000000        4.579653        6.577125        7.581346 # A4B6
    586   117     2        0.000000        4.150992        6.824612        7.581346 # A4B6
    587   117     2        0.000000        4.398480        7.253273        7.581346 # A4B6
    588   117     2        0.000000        3.969819        7.500760        7.581346 # A4B6
    589   117     2        0.000000        3.486856        7.371351        7.581346 # A4B6
    590   117     2        0.000000        3.616265        6.888388        7.581346 # A4B6
    591   119     1        0.000000        5.065136        5.079187        7.363400 # A4B6
    592   119     1        0.000000        4.582173        5.208596        7.363400 # A4B6
    593   119     1        0.000000        4.099210        5.338006        7.363400 # A4B6
    594   119     1        0.000000        3.670550        5.090518        7.363400 # A4B6
    595   119     2        0.000000        3.423062        5.519179        7.363400 # A4B6
    596   119     2        0.000000        2.994401        5.271692        7.363400 # A4B6
    597   119     2        0.000000        2.746914        5.700352        7.363400 # A4B6
    598   119     2        0.000000        2.318253        5.452865        7.363400 # A4B6
    599   119     2        0.000000        2.188844        4.969902        7.363400 # A4B6
    600   119     2        0.000000        2.671807        4.840492        7.363400 # A4B6
    601   121     1        0.000000        5.040195        5.061935        8.071036 # A4B6
    602   121     1        0.000000        4.869185        4.592089        8.071036 # A4B6
    603   121     1        0.000000        4.698175        4.122243        8.071036 # A4B6
    604   121     1        0.000000        4.907360        3.673643        8.071036 # A4B6
    605   121     2        0.000000        4.458761        3.464458        8.071036 # A4B6
    606   121     2        0.000000        4.667946        3.015858        8.071036 # A4B6
    607   121     2        0.000000        4.219347        2.806673        8.071036 # A4B6
    608   121     2        0.000000        4.428532        2.358074        8.071036 # A4B6
    609   121     2        0.000000        4.898379        2.187063        8.071036 # A4B6
    610   121     2        0.000000        5.069389        2.656910        8.071036 # A4B6
    611   123     1        0.000000        5.057120        4.988036        8.092095 # A4B6
    612   123     1        0.000000        5.378514        4.605013        8.092095 # A4B6
    613   123     1        0.000000        5.699908        4.221991        8.092095 # A4B6
    614   123     1        0.000000        6.192999        4.178851        8.092095 # A4B6
    615   123     2        0.000000        6.149859        3.685760        8.092095 # A4B6
    616   123     2        0.000000        6.642950        3.642620        8.092095 # A4B6
    617   123     2        0.000000        6.599810        3.149529        8.092095 # A4B6
    618   123     2        0.000000        7.092902        3.106389        8.092095 # A4B6
    619   123     2        0.000000        7.475924        3.427783        8.092095 # A4B6
    620   123     2        0.000000        7.154530        3.810805        8.092095 # A4B6
    621   125     1        0.000000        5.073005        5.013279        8.507083 # A4B6
    622   125     1        0.000000        5.565409        5.100103        8.507083 # A4B6
    623   125     1        0.000000        6.057813        5.186927        8.507083 # A4B6
    624   125     1        0.000000        6.341719        5.592387        8.507083 # A4B6
    625   125     2        0.000000        6.747179        5.308481        8.507083 # A4B6
    626   125     2        0.000000        7.031084        5.713940        8.507083 # A4B6
    627   125     2        0.000000        7.436544        5.430034        8.507083 # A4B6
    628   125     2        0.000000        7.720450        5.835494        8.507083 # A4B6
    629   125     2        0.000000        7.633626        6.327898        8.507083 # A4B6
    630   125     2        0.000000        7.141222        6.241074        8.507083 # A4B6
    631   127     1        0.000000        4.989935        5.039807        8.532190 # A4B6
    632   127     1        0.000000        5.160945        5.509654        8.532190 # A4B6
    633   127     1        0.000000        5.331955        5.979500        8.532190 # A4B6
    634   127     1        0.000000        5.122770        6.428099        8.532190 # A4B6
    635   127     2        0.000000        5.571369        6.637285        8.532190 # A4B6
    636   127     2        0.000000        5.362184        7.085884        8.532190 # A4B6
    637   127     2        0.000000        5.810783        7.295070        8.532190 # A4B6
    638   127     2        0.000000        5.601598        7.743669        8.532190 # A4B6
    639   127     2        0.000000        5.131752        7.914679        8.532190 # A4B6
    640   127     2        0.000000        4.960742        7.444833        8.532190 # A4B6
    641   129     1        0.000000        4.906694        4.965993        8.552509 # A4B6
    642   129     1        0.000000        4.585300        5.349015        8.552509 # A4B6
    643   129     1        0.000000        4.263906        5.732037        8.552509 # A4B6
    644   129     1        0.000000        3.770815        5.775177        8.552509 # A4B6
    645   129     2        0.000000        3.813955        6.268268        8.552509 # A4B6
    646   129     2        0.000000        3.320864        6.311408        8.552509 # A4B6
    647   129     2        0.000000        3.364004        6.804500        8.552509 # A4B6
    648   129     2        0.000000        2.870913        6.847639        8.552509 # A4B6
    649   129     2        0.000000        2.487890        6.526246        8.552509 # A4B6
    650   129     2        0.000000        2.809284        6.143223        8.552509 # A4B6
    651   131     1        0.000000        5.023183        4.991348        8.170681 # A4B6
    652   131     1        0.000000        4.530779        4.904524        8.170681 # A4B6
    653   131     1        0.000000        4.038376        4.817699        8.170681 # A4B6
    654   131     1        0.000000        3.754470        4.412240        8.170681 # A4B6
    655   131     2        0.000000        3.349010        4.696146        8.170681 # A4B6
    656   131     2        0.000000        3.065104        4.290686        8.170681 # A4B6
    657   131     2        0.000000        2.659645        4.574592        8.170681 # A4B6
    658   131     2        0.000000        2.375739        4.169132        8.170681 # A4B6
    659   131     2        0.000000        2.462563        3.676729        8.170681 # A4B6
    660   131     2        0.000000        2.954967        3.763553        8.170681 # A4B6
    661   133     1        0.000000        5.040195        5.061935        8.871036 # A4B6
    662   133     1        0.000000        5.083773        4.563838        8.871036 # A4B6
    663   133     1        0.000000        5.127351        4.065741        8.871036 # A4B6
    664   133     1        0.000000        5.506524        3.747577        8.871036 # A4B6
    665   133     2        0.000000        5.188360        3.368404        8.871036 # A4B6
    666   133     2        0.000000        5.567533        3.050241        8.871036 # A4B6
    667   133     2        0.000000        5.249369        2.671068        8.871036 # A4B6
    668   133     2        0.000000        5.628542        2.352904        8.871036 # A4B6
    669   133     2        0.000000        6.126639        2.396482        8.871036 # A4B6
    670   133     2        0.000000        6.083061        2.894580        8.871036 # A4B6
    671   135     1        0.000000        5.026529        4.968283        9.523288 # A4B6
    672   135     1        0.000000        5.479683        4.756974        9.523288 # A4B6
    673   135     1        0.000000        5.932836        4.545665        9.523288 # A4B6
    674   135     1        0.000000        6.397961        4.714956        9.523288 # A4B6
    675   135     2        0.000000        6.567252        4.249832        9.523288 # A4B6
    676   135     2        0.000000        7.032376        4.419123        9.523288 # A4B6
    677   135     2        0.000000        7.201667        3.953999        9.523288 # A4B6
    678   135     2        0.000000        7.666791        4.123291        9.523288 # A4B6
    679   135     2        0.000000        7.878101        4.576445        9.523288 # A4B6
    680   135     2        0.000000        7.424947        4.787754        9.523288 # A4B6
    681   137     1        0.000000        4.917543        5.079756        8.998347 # A4B6
    682   137     1        0.000000        5.327119        5.366544        8.998347 # A4B6
    683   137     1        0.000000        5.736695        5.653332        8.998347 # A4B6
    684   137     1        0.000000        5.822646        6.140787        8.998347 # A4B6
    685   137     2        0.000000        6.310101        6.054836        8.998347 # A4B6
    686   137     2        0.000000        6.396053        6.542291        8.998347 # A4B6
    687   137     2        0.000000        6.883508        6.456339        8.998347 # A4B6
    688   137     2        0.000000        6.969459        6.943794        8.998347 # A4B6
    689   137     2        0.000000        6.682671        7.353370        8.998347 # A4B6
    690   137     2        0.000000        6.273095        7.066582        8.998347 # A4B6
    691   139     1        0.000000        5.004898        4.987580        8.856243 # A4B6
    692   139     1        0.000000        4.961320        5.485677        8.856243 # A4B6
    693   139     1        0.000000        4.917742        5.983775        8.856243 # A4B6
    694   139     1        0.000000        4.538570        6.301938        8.856243 # A4B6
    695   139     2        0.000000        4.856733        6.681111        8.856243 # A4B6
    696   139     2        0.000000        4.477561        6.999275        8.856243 # A4B6
    697   139     2        0.000000        4.795724        7.378447        8.856243 # A4B6
    698   139     2        0.000000        4.416552        7.696611        8.856243 # A4B6
    699   139     2        0.000000        3.918454        7.653033        8.856243 # A4B6
    700   139     2        0.000000        3.962032        7.154936        8.856243 # A4B6
    701   141     1        0.000000        4.993939        4.997098        9.123397 # A4B6
    702   141     1        0.000000        4.540785        5.208407        9.123397 # A4B6
    703   141     1        0.000000        4.087631        5.419716        9.123397 # A4B6
    704   141     1        0.000000        3.622507        5.250425        9.123397 # A4B6
    705   141     2        0.000000        3.453216        5.715549        9.123397 # A4B6
    706   141     2        0.000000        2.988092        5.546258        9.123397 # A4B6
    707   141     2        0.000000        2.818801        6.011382        9.123397 # A4B6
    708   141     2        0.000000        2.353676        5.842091        9.123397 # A4B6
    709   141     2        0.000000        2.142367        5.388937        9.123397 # A4B6
    710   141     2        0.000000        2.595521        5.177628        9.123397 # A4B6
    711   143     1        0.000000        5.082230        5.005304        9.384209 # A4B6
    712   143     1        0.000000        4.672654        4.718516        9.384209 # A4B6
    713   143     1        0.000000        4.263078        4.431728        9.384209 # A4B6
    714   143     1        0.000000        4.177127        3.944273        9.384209 # A4B6
    715   143     2        0.000000        3.689672        4.030224        9.384209 # A4B6
    716   143     2        0.000000        3.603720        3.542769        9.384209 # A4B6
    717   143     2        0.000000        3.116265        3.628721        9.384209 # A4B6
    718   143     2        0.000000        3.030314        3.141266        9.384209 # A4B6
    719   143     2        0.000000        3.317102        2.731690        9.384209 # A4B6
    720   143     2        0.000000        3.726678        3.018478        9.384209 # A4B6
    721   145     1        0.000000        5.040195        5.061935        9.671036 # A4B6
    722   145     1        0.000000        5.290195        4.628923        9.671036 # A4B6
    723   145     1        0.000000        5.540195        4.195910        9.671036 # A4B6
    724   145     1        0.000000        6.018304        4.067801        9.671036 # A4B6
    725   145     2        0.000000        5.890195        3.589692        9.671036 # A4B6
    726   145     2        0.000000        6.368304        3.461583        9.671036 # A4B6
    727   145     2        0.000000        6.240195        2.983474        9.671036 # A4B6
    728   145     2        0.000000        6.718304        2.855365        9.671036 # A4B6
    729   145     2        0.000000        7.151317        3.105365        9.671036 # A4B6
    730   145     2        0.000000        6.901317        3.538378        9.671036 # A4B6
    731   147     1        0.000000        5.099900        4.952663        9.772678 # A4B6
    732   147     1        0.000000        5.599900        4.952663        9.772678 # A4B6
    733   147     1        0.000000        6.099900        4.952663        9.772678 # A4B6
    734   147     1        0.000000        6.449900        5.302663        9.772678 # A4B6
    735   147     2        0.000000        6.799900        4.952663        9.772678 # A4B6
    736   147     2        0.000000        7.149900        5.302663        9.772678 # A4B6
    737   147     2        0.000000        7.499900        4.952663        9.772678 # A4B6
    738   147     2        0.000000        7.849900        5.302663        9.772678 # A4B6
    739   147     2        0.000000        7.849900        5.802663        9.772678 # A4B6
    740   147     2        0.000000        7.349900        5.802663        9.772678 # A4B6
    741   149     1        0.000000        5.059109        4.943062        9.874097 # A4B6
    742   149     1        0.000000        5.309109        5.376075        9.874097 # A4B6
    743   149     1        0.000000        5.559109        5.809087        9.874097 # A4B6
    744   149     1        0.000000        5.431000        6.287196        9.874097 # A4B6
    745   149     2        0.000000        5.909109        6.415305        9.874097 # A4B6
    746   149     2        0.000000        5.781000        6.893414        9.874097 # A4B6
    747   149     2        0.000000        6.259109        7.021523        9.874097 # A4B6
    748   149     2        0.000000        6.131000        7.499632        9.874097 # A4B6
    749   149     2        0.000000        5.697988        7.749632        9.874097 # A4B6
    750   149     2        0.000000        5.447988        7.316619        9.874097 # A4B6
    751   151     1        0.000000        5.019645        4.935051        9.981346 # A4B6
    752   151     1        0.000000        4.769645        5.368063        9.981346 # A4B6
    753   151     1        0.000000        4.519645        5.801076        9.981346 # A4B6
    754   151     1        0.000000        4.041536        5.929185        9.981346 # A4B6
    755   151     2        0.000000        4.169645        6.407294        9.981346 # A4B6
    756   151     2        0.000000        3.691536        6.535403        9.981346 # A4B6
    757   151     2        0.000000        3.819645        7.013512        9.981346 # A4B6
    758   151     2        0.000000        3.341536        7.141621        9.981346 # A4B6
    759   151     2        0.000000        2.908524        6.891621        9.981346 # A4B6
    760   151     2        0.000000        3.158524        6.458608        9.981346 # A4B6
    761   153     1        0.000000        5.078864        5.025729        9.683277 # A4B6
    762   153     1        0.000000        4.578864        5.025729        9.683277 # A4B6
    763   153     1        0.000000        4.078864        5.025729        9.683277 # A4B6
    764   153     1        0.000000        3.728864        4.675729        9.683277 # A4B6
    765   153     2        0.000000        3.378864        5.025729        9.683277 # A4B6
    766   153     2        0.000000        3.028864        4.675729        9.683277 # A4B6
    767   153     2        0.000000        2.678864        5.025729        9.683277 # A4B6
    768   153     2        0.000000        2.328864        4.675729        9.683277 # A4B6
    769   153     2        0.000000        2.328864        4.175729        9.683277 # A4B6
    770   153     2        0.000000        2.828864        4.175729        9.683277 # A4B6
    771   155     1        0.000000        5.039910        5.018098       10.195135 # A4B6
    772   155     1        0.000000        4.789910        4.585085       10.195135 # A4B6
    773   155     1        0.000000        4.539910        4.152073       10.195135 # A4B6
    774   155     1        0.000000        4.668019        3.673964       10.195135 # A4B6
    775   155     2        0.000000        4.189910        3.545855       10.195135 # A4B6
    776   155     2        0.000000        4.318019        3.067746       10.195135 # A4B6
    777   155     2        0.000000        3.839910        2.939637       10.195135 # A4B6
    778   155     2        0.000000        3.968019        2.461528       10.195135 # A4B6
    779   155     2        0.000000        4.401032        2.211528       10.195135 # A4B6
    780   155     2        0.000000        4.651032        2.644541       10.195135 # A4B6
    781   157     1        0.000000        5.040195        5.061935       10.471036 # A4B6
    782   157     1        0.000000        5.449771        4.775147       10.471036 # A4B6
    783   157     1        0.000000        5.859347        4.488359       10.471036 # A4B6
    784   157     1        0.000000        6.346802        4.574310       10.471036 # A4B6
    785   157     2        0.000000        6.432754        4.086855       10.471036 # A4B6
    786   157     2        0.000000        6.920209        4.172807       10.471036 # A4B6
    787   157     2        0.000000        7.006160        3.685352       10.471036 # A4B6
    788   157     2        0.000000        7.493615        3.771303       10.471036 # A4B6
    789   157     2        0.000000        7.780403        4.180879       10.471036 # A4B6
    790   157     2        0.000000        7.370827        4.467668       10.471036 # A4B6
    791   159     1        0.000000        4.970995        5.034630       10.812286 # A4B6
    792   159     1        0.000000        5.424149        5.245939       10.812286 # A4B6
    793   159     1        0.000000        5.877302        5.457248       10.812286 # A4B6
    794   159     1        0.000000        6.046594        5.922372       10.812286 # A4B6
    795   159     2        0.000000        6.511718        5.753081       10.812286 # A4B6
    796   159     2        0.000000        6.681009        6.218205       10.812286 # A4B6
    797   159     2        0.000000        7.146133        6.048914       10.812286 # A4B6
    798   159     2        0.000000        7.315425        6.514038       10.812286 # A4B6
    799   159     2        0.000000        7.104116        6.967192       10.812286 # A4B6
    800   159     2        0.000000        6.650962        6.755883       10.812286 # A4B6
    801   161     1        0.000000        5.003431        4.908989       10.761944 # A4B6
    802   161     1        0.000000        5.047009        5.407086       10.761944 # A4B6
    803   161     1        0.000000        5.090587        5.905183       10.761944 # A4B6
    804   161     1        0.000000        4.772423        6.284356       10.761944 # A4B6
    805   161     2        0.000000        5.151596        6.602520       10.761944 # A4B6
    806   161     2        0.000000        4.833432        6.981692       10.761944 # A4B6
    807   161     2        0.000000        5.212605        7.299856       10.761944 # A4B6
    808   161     2        0.000000        4.894441        7.679029       10.761944 # A4B6
    809   161     2        0.000000        4.396344        7.722607       10.761944 # A4B6
    810   161     2        0.000000        4.352766        7.224509       10.761944 # A4B6
    811   163     1        0.000000        5.034049        5.082336       10.705708 # A4B6
    812   163     1        0.000000        4.624473        5.369124       10.705708 # A4B6
    813   163     1        0.000000        4.214897        5.655912       10.705708 # A4B6
    814   163     1        0.000000        3.727442        5.569961       10.705708 # A4B6
    815   163     2        0.000000        3.641491        6.057416       10.705708 # A4B6
    816   163     2        0.000000        3.154036        5.971464       10.705708 # A4B6
    817   163     2        0.000000        3.068084        6.458919       10.705708 # A4B6
    818   163     2        0.000000        2.580629        6.372968       10.705708 # A4B6
    819   163     2        0.000000        2.293841        5.963392       10.705708 # A4B6
    820   163     2        0.000000        2.703417        5.676604       10.705708 # A4B6
    821   165     1        0.000000        4.965908        5.056378       11.053591 # A4B6
    822   165     1        0.000000        4.512754        4.845069       11.053591 # A4B6
    823   165     1        0.000000        4.059600        4.633760       11.053591 # A4B6
    824   165     1        0.000000        3.890308        4.168636       11.053591 # A4B6
    825   165     2        0.000000        3.425184        4.337927       11.053591 # A4B6
    826   165     2        0.000000        3.255893        3.872803       11.053591 # A4B6
    827   165     2        0.000000        2.790769        4.042094       11.053591 # A4B6
    828   165     2        0.000000        2.621478        3.576970       11.053591 # A4B6
    829   165     2        0.000000        2.832787        3.123816       11.053591 # A4B6
    830   165     2        0.000000        3.285941        3.335125       11.053591 # A4B6
    831   167     1        0.000000        4.997741        4.930383       10.600447 # A4B6
    832   167     1        0.000000        4.954163        4.432286       10.600447 # A4B6
    833   167     1        0.000000        4.910586        3.934189       10.600447 # A4B6
    834   167     1        0.000000        5.228749        3.555016       10.600447 # A4B6
    835   167     2        0.000000        4.849577        3.236852       10.600447 # A4B6
    836   167     2        0.000000        5.167740        2.857680       10.600447 # A4B6
    837   167     2        0.000000        4.788568        2.539516       10.600447 # A4B6
    838   167     2        0.000000        5.106731        2.160343       10.600447 # A4B6
    839   167     2        0.000000        5.604828        2.116766       10.600447 # A4B6
    840   167     2        0.000000        5.648406        2.614863       10.600447 # A4B6
    841   169     1        0.000000        5.040195        5.061935       11.271036 # A4B6
    842   169     1        0.000000        5.532599        4.975111       11.271036 # A4B6
    843   169     1        0.000000        6.025003        4.888287       11.271036 # A4B6
    844   169     1        0.000000        6.430463        5.172193       11.271036 # A4B6
    845   169     2        0.000000        6.714368        4.766733       11.271036 # A4B6
    846   169     2        0.000000        7.119828        5.050639       11.271036 # A4B6
    847   169     2        0.000000        7.403734        4.645180       11.271036 # A4B6
    848   169     2        0.000000        7.809193        4.929085       11.271036 # A4B6
    849   169     2        0.000000        7.896018        5.421489       11.271036 # A4B6
    850   169     2        0.000000        7.403614        5.508313       11.271036 # A4B6
    851   171     1        0.000000        4.943087        4.917907       11.457218 # A4B6
    852   171     1        0.000000        5.264481        5.300930       11.457218 # A4B6
    853   171     1        0.000000        5.585875        5.683952       11.457218 # A4B6
    854   171     1        0.000000        5.542735        6.177043       11.457218 # A4B6
    855   171     2        0.000000        6.035826        6.220183       11.457218 # A4B6
    856   171     2        0.000000        5.992687        6.713274       11.457218 # A4B6
    857   171     2        0.000000        6.485778        6.756414       11.457218 # A4B6
    858   171     2        0.000000        6.442638        7.249505       11.457218 # A4B6
    859   171     2        0.000000        6.059616        7.570899       11.457218 # A4B6
    860   171     2        0.000000        5.738222        7.187877       11.457218 # A4B6
    861   173     1        0.000000        4.945993        5.073952       11.643797 # A4B6
    862   173     1        0.000000        4.774983        5.543798       11.643797 # A4B6
    863   173     1        0.000000        4.603973        6.013644       11.643797 # A4B6
    864   173     1        0.000000        4.155374        6.222830       11.643797 # A4B6
    865   173     2        0.000000        4.364559        6.671429       11.643797 # A4B6
    866   173     2        0.000000        3.915960        6.880615       11.643797 # A4B6
    867   173     2        0.000000        4.125145        7.329214       11.643797 # A4B6
    868   173     2        0.000000        3.676546        7.538399       11.643797 # A4B6
    869   173     2        0.000000        3.206699        7.367389       11.643797 # A4B6
    870   173     2        0.000000        3.377709        6.897543       11.643797 # A4B6
    871   175     1        0.000000        5.049947        5.030923       11.833843 # A4B6
    872   175     1        0.000000        4.557544        5.117747       11.833843 # A4B6
    873   175     1        0.000000        4.065140        5.204571       11.833843 # A4B6
    874   175     1        0.000000        3.659680        4.920665       11.833843 # A4B6
    875   175     2        0.000000        3.375774        5.326124       11.833843 # A4B6
    876   175     2        0.000000        2.970315        5.042219       11.833843 # A4B6
    877   175     2        0.000000        2.686409        5.447678       11.833843 # A4B6
    878   175     2        0.000000        2.280949        5.163772       11.833843 # A4B6
    879   175     2        0.000000        2.194125        4.671368       11.833843 # A4B6
    880   175     2        0.000000        2.686529        4.584544       11.833843 # A4B6
    881   177     1        0.000000        5.053310        5.087533       11.224868 # A4B6
    882   177     1        0.000000        4.731916        4.704511       11.224868 # A4B6
    883   177     1        0.000000        4.410522        4.321489       11.224868 # A4B6
    884   177     1        0.000000        4.453662        3.828398       11.224868 # A4B6
    885   177     2        0.000000        3.960571        3.785258       11.224868 # A4B6
    886   177     2        0.000000        4.003711        3.292167       11.224868 # A4B6
    887   177     2        0.000000        3.510620        3.249027       11.224868 # A4B6
    888   177     2        0.000000        3.553760        2.755936       11.224868 # A4B6
    889   177     2        0.000000        3.936782        2.434542       11.224868 # A4B6
    890   177     2        0.000000        4.258176        2.817564       11.224868 # A4B6
    891   179     1        0.000000        4.956709        4.944136       11.413503 # A4B6
    892   179     1        0.000000        5.127719        4.474290       11.413503 # A4B6
    893   179     1        0.000000        5.298729        4.004443       11.413503 # A4B6
    894   179     1        0.000000        5.747328        3.795258       11.413503 # A4B6
    895   179     2        0.000000        5.538143        3.346658       11.413503 # A4B6
    896   179     2        0.000000        5.986742        3.137473       11.413503 # A4B6
    897   179     2        0.000000        5.777557        2.688874       11.413503 # A4B6
    898   179     2        0.000000        6.226157        2.479688       11.413503 # A4B6
    899   179     2        0.000000        6.696003        2.650698       11.413503 # A4B6
    900   179     2        0.000000        6.524993        3.120545       11.413503 # A4B6
    901   181     1        0.000000        5.040195        5.061935       12.071036 # A4B6
    902   181     1        0.000000        5.523158        5.191345       12.071036 # A4B6
    903   181     1        0.000000        6.006121        5.320754       12.071036 # A4B6
    904   181     1        0.000000        6.253608        5.749415       12.071036 # A4B6
    905   181     2        0.000000        6.682269        5.501928       12.071036 # A4B6
    906   181     2        0.000000        6.929757        5.930588       12.071036 # A4B6
    907   181     2        0.000000        7.358417        5.683101       12.071036 # A4B6
    908   181     2        0.000000        7.605905        6.111762       12.071036 # A4B6
    909   181     2        0.000000        7.476495        6.594725       12.071036 # A4B6
    910   181     2        0.000000        6.993532        6.465315       12.071036 # A4B6
    911   183     1        0.000000        5.014359        4.900370       12.098167 # A4B6
    912   183     1        0.000000        5.143768        5.383333       12.098167 # A4B6
    913   183     1        0.000000        5.273178        5.866296       12.098167 # A4B6
    914   183     1        0.000000        5.025690        6.294957       12.098167 # A4B6
    915   183     2        0.000000        5.454351        6.542444       12.098167 # A4B6
    916   183     2        0.000000        5.206864        6.971105       12.098167 # A4B6
    917   183     2        0.000000        5.635525        7.218592       12.098167 # A4B6
    918   183     2        0.000000        5.388037        7.647253       12.098167 # A4B6
    919   183     2        0.000000        4.905074        7.776663       12.098167 # A4B6
    920   183     2        0.000000        4.775665        7.293700       12.098167 # A4B6
    921   185     1        0.000000        4.989935        5.039807       12.532190 # A4B6
    922   185     1        0.000000        4.636382        5.393361       12.532190 # A4B6
    923   185     1        0.000000        4.282828        5.746914       12.532190 # A4B6
    924   185     1        0.000000        3.787854        5.746914       12.532190 # A4B6
    925   185     2        0.000000        3.787854        6.241889       12.532190 # A4B6
    926   185     2        0.000000        3.292879        6.241889       12.532190 # A4B6
    927   185     2        0.000000        3.292879        6.736864       12.532190 # A4B6
    928   185     2        0.000000        2.797904        6.736864       12.532190 # A4B6
    929   185     2        0.000000        2.444351        6.383310       12.532190 # A4B6
    930   185     2        0.000000        2.797904        6.029757       12.532190 # A4B6
    931   187     1        0.000000        5.065136        5.079187       12.163400 # A4B6
    932   187     1        0.000000        4.582173        4.949777       12.163400 # A4B6
    933   187     1        0.000000        4.099210        4.820368       12.163400 # A4B6
    934   187     1        0.000000        3.851723        4.391707       12.163400 # A4B6
    935   187     2        0.000000        3.423062        4.639194       12.163400 # A4B6
    936   187     2        0.000000        3.175575        4.210533       12.163400 # A4B6
    937   187     2        0.000000        2.746914        4.458021       12.163400 # A4B6
    938   187     2        0.000000        2.499427        4.029360       12.163400 # A4B6
    939   187     2        0.000000        2.628836        3.546397       12.163400 # A4B6
    940   187     2        0.000000        3.111799        3.675807       12.163400 # A4B6
    941   189     1        0.000000        5.039910        5.018098       12.595135 # A4B6
    942   189     1        0.000000        4.910501        4.535135       12.595135 # A4B6
    943   189     1        0.000000        4.781091        4.052172       12.595135 # A4B6
    944   189     1        0.000000        5.028578        3.623511       12.595135 # A4B6
    945   189     2        0.000000        4.599918        3.376024       12.595135 # A4B6
    946   189     2        0.000000        4.847405        2.947363       12.595135 # A4B6
    947   189     2        0.000000        4.418744        2.699876       12.595135 # A4B6
    948   189     2        0.000000        4.666232        2.271215       12.595135 # A4B6
    949   189     2        0.000000        5.149195        2.141806       12.595135 # A4B6
    950   189     2        0.000000        5.278604        2.624769       12.595135 # A4B6
    951   191     1        0.000000        4.915294        4.957562       12.627632 # A4B6
    952   191     1        0.000000        5.268847        4.604009       12.627632 # A4B6
    953   191     1        0.000000        5.622401        4.250455       12.627632 # A4B6
    954   191     1        0.000000        6.117375        4.250455       12.627632 # A4B6
    955   191     2        0.000000        6.117375        3.755480       12.627632 # A4B6
    956   191     2        0.000000        6.612350        3.755480       12.627632 # A4B6
    957   191     2        0.000000        6.612350        3.260506       12.627632 # A4B6
    958   191     2        0.000000        7.107325        3.260506       12.627632 # A4B6
    959   191     2        0.000000        7.460878        3.614059       12.627632 # A4B6
    960   191     2        0.000000        7.107325        3.967612       12.627632 # A4B6
    961   193     1        0.000000        5.040195        5.061935       12.871036 # A4B6
    962   193     1        0.000000        5.423217        5.383329       12.871036 # A4B6
    963   193     1        0.000000        5.806240        5.704723       12.871036 # A4B6
    964   193     1        0.000000        5.849380        6.197814       12.871036 # A4B6
    965   193     2        0.000000        6.342471        6.154674       12.871036 # A4B6
    966   193     2        0.000000        6.385611        6.647765       12.871036 # A4B6
    967   193     2        0.000000        6.878702        6.604626       12.871036 # A4B6
    968   193     2        0.000000        6.921842        7.097717       12.871036 # A4B6
    969   193     2        0.000000        6.600448        7.480739       12.871036 # A4B6
    970   193     2        0.000000        6.217426        7.159345       12.871036 # A4B6
    971   195     1        0.000000        5.085815        5.082599       13.539090 # A4B6
    972   195     1        0.000000        4.998990        5.575003       13.539090 # A4B6
    973   195     1        0.000000        4.912166        6.067407       13.539090 # A4B6
    974   195     1        0.000000        4.506707        6.351313       13.539090 # A4B6
    975   195     2        0.000000        4.790613        6.756772       13.539090 # A4B6
    976   195     2        0.000000        4.385153        7.040678       13.539090 # A4B6
    977   195     2        0.000000        4.669059        7.446138       13.539090 # A4B6
    978   195     2        0.000000        4.263599        7.730044       13.539090 # A4B6
    979   195     2        0.000000        3.771195        7.643220       13.539090 # A4B6
    980   195     2        0.000000        3.858020        7.150816       13.539090 # A4B6
    981   197     1        0.000000        4.933794        4.905718       13.418248 # A4B6
    982   197     1        0.000000        4.463948        5.076728       13.418248 # A4B6
    983   197     1        0.000000        3.994101        5.247738       13.418248 # A4B6
    984   197     1        0.000000        3.545502        5.038552       13.418248 # A4B6
    985   197     2        0.000000        3.336317        5.487152       13.418248 # A4B6
    986   197     2        0.000000        2.887717        5.277966       13.418248 # A4B6
    987   197     2        0.000000        2.678532        5.726566       13.418248 # A4B6
    988   197     2        0.000000        2.229932        5.517380       13.418248 # A4B6
    989   197     2        0.000000        2.058922        5.047534       13.418248 # A4B6
    990   197     2        0.000000        2.528768        4.876524       13.418248 # A4B6
    991   199     1        0.000000        5.078864        5.025729       12.883277 # A4B6
    992   199     1        0.000000        4.695842        4.704335       12.883277 # A4B6
    993   199     1        0.000000        4.312820        4.382941       12.883277 # A4B6
    994   199     1        0.000000        4.269680        3.889850       12.883277 # A4B6
    995   199     2        0.000000        3.776589        3.932990       12.883277 # A4B6
    996   199     2        0.000000        3.733449        3.439898       12.883277 # A4B6
    997   199     2        0.000000        3.240358        3.483038       12.883277 # A4B6
    998   199     2        0.000000        3.197218        2.989947       12.883277 # A4B6
    999   199     2        0.000000        3.518611        2.606925       12.883277 # A4B6
   1000   199     2        0.000000        3.901634        2.928319       12.883277 # A4B6
   1001   201     1        0.000000        4.926648        5.048539       13.162025 # A4B6
   1002   201     1        0.000000        5.013472        4.556135       13.162025 # A4B6
   1003   201     1        0.000000        5.100296        4.063732       13.162025 # A4B6
   1004   201     1        0.000000        5.505756        3.779826       13.162025 # A4B6
   1005   201     2        0.000000        5.221850        3.374366       13.162025 # A4B6
   1006   201     2        0.000000        5.627309        3.090460       13.162025 # A4B6
   1007   201     2        0.000000        5.343403        2.685001       13.162025 # A4B6
   1008   201     2        0.000000        5.748863        2.401095       13.162025 # A4B6
   1009   201     2        0.000000        6.241267        2.487919       13.162025 # A4B6
   1010   201     2        0.000000        6.154443        2.980323       13.162025 # A4B6
   1011   203     1        0.000000        5.072867        4.969776       13.432736 # A4B6
   1012   203     1        0.000000        5.542713        4.798766       13.432736 # A4B6
   1013   203     1        0.000000        6.012560        4.627756       13.432736 # A4B6
   1014   203     1        0.000000        6.461159        4.836942       13.432736 # A4B6
   1015   203     2        0.000000        6.670345        4.388342       13.432736 # A4B6
   1016   203     2        0.000000        7.118944        4.597528       13.432736 # A4B6
   1017   203     2        0.000000        7.328129        4.148928       13.432736 # A4B6
   1018   203     2        0.000000        7.776729        4.358113       13.432736 # A4B6
   1019   203     2        0.000000        7.947739        4.827960       13.432736 # A4B6
   1020   203     2        0.000000        7.477893        4.998970       13.432736 # A4B6
   1021   205     1        0.000000        5.040195        5.061935       13.671036 # A4B6
   1022   205     1        0.000000        5.251504        5.515089       13.671036 # A4B6
   1023   205     1        0.000000        5.462814        5.968243       13.671036 # A4B6
   1024   205     1        0.000000        5.293522        6.433367       13.671036 # A4B6
   1025   205     2        0.000000        5.758646        6.602659       13.671036 # A4B6
   1026   205     2        0.000000        5.589355        7.067783       13.671036 # A4B6
   1027   205     2        0.000000        6.054479        7.237074       13.671036 # A4B6
   1028   205     2        0.000000        5.885188        7.702198       13.671036 # A4B6
   1029   205     2        0.000000        5.432034        7.913507       13.671036 # A4B6
   1030   205     2        0.000000        5.220725        7.460353       13.671036 # A4B6
   1031   207     1        0.000000        4.958047        4.965557       13.782851 # A4B6
   1032   207     1        0.000000        4.671258        5.375133       13.782851 # A4B6
   1033   207     1        0.000000        4.384470        5.784709       13.782851 # A4B6
   1034   207     1        0.000000        3.897015        5.870661       13.782851 # A4B6
   1035   207     2        0.000000        3.982967        6.358116       13.782851 # A4B6
   1036   207     2        0.000000        3.495512        6.444067       13.782851 # A4B6
   1037   207     2        0.000000        3.581463        6.931522       13.782851 # A4B6
   1038   207     2        0.000000        3.094008        7.017474       13.782851 # A4B6
   1039   207     2        0.000000        2.684432        6.730686       13.782851 # A4B6
   1040   207     2        0.000000        2.971220        6.321110       13.782851 # A4B6
   1041   209     1        0.000000        4.976252        4.969850       14.298270 # A4B6
   1042   209     1        0.000000        4.478155        4.926272       14.298270 # A4B6
   1043   209     1        0.000000        3.980057        4.882694       14.298270 # A4B6
   1044   209     1        0.000000        3.661894        4.503521       14.298270 # A4B6
   1045   209     2        0.000000        3.282721        4.821685       14.298270 # A4B6
   1046   209     2        0.000000        2.964557        4.442512       14.298270 # A4B6
   1047   209     2        0.000000        2.585385        4.760676       14.298270 # A4B6
   1048   209     2        0.000000        2.267221        4.381503       14.298270 # A4B6
   1049   209     2        0.000000        2.310799        3.883406       14.298270 # A4B6
   1050   209     2        0.000000        2.808896        3.926984       14.298270 # A4B6
   1051   211     1        0.000000        5.095541        5.074820       14.015559 # A4B6
   1052   211     1        0.000000        4.884232        4.621666       14.015559 # A4B6
   1053   211     1        0.000000        4.672922        4.168512       14.015559 # A4B6
   1054   211     1        0.000000        4.842214        3.703388       14.015559 # A4B6
   1055   211     2        0.000000        4.377090        3.534097       14.015559 # A4B6
   1056   211     2        0.000000        4.546381        3.068972       14.015559 # A4B6
   1057   211     2        0.000000        4.081257        2.899681       14.015559 # A4B6
   1058   211     2        0.000000        4.250548        2.434557       14.015559 # A4B6
   1059   211     2        0.000000        4.703702        2.223248       14.015559 # A4B6
   1060   211     2        0.000000        4.915011        2.676402       14.015559 # A4B6
   1061   213     1        0.000000        5.014045        5.079626       13.732712 # A4B6
   1062   213     1        0.000000        5.300834        4.670050       13.732712 # A4B6
   1063   213     1        0.000000        5.587622        4.260474       13.732712 # A4B6
   1064   213     1        0.000000        6.075077        4.174522       13.732712 # A4B6
   1065   213     2        0.000000        5.989125        3.687067       13.732712 # A4B6
   1066   213     2        0.000000        6.476580        3.601116       13.732712 # A4B6
   1067   213     2        0.000000        6.390629        3.113661       13.732712 # A4B6
   1068   213     2        0.000000        6.878084        3.027709       13.732712 # A4B6
   1069   213     2        0.000000        7.287660        3.314498       13.732712 # A4B6
   1070   213     2        0.000000        7.000872        3.724074       13.732712 # A4B6
   1071   215     1        0.000000        4.932773        5.084345       13.850943 # A4B6
   1072   215     1        0.000000        5.430870        5.127923       13.850943 # A4B6
   1073   215     1        0.000000        5.928968        5.171501       13.850943 # A4B6
   1074   215     1        0.000000        6.247131        5.550674       13.850943 # A4B6
   1075   215     2        0.000000        6.626304        5.232510       13.850943 # A4B6
   1076   215     2        0.000000        6.944468        5.611683       13.850943 # A4B6
   1077   215     2        0.000000        7.323640        5.293519       13.850943 # A4B6
   1078   215     2        0.000000        7.641804        5.672692       13.850943 # A4B6
   1079   215     2        0.000000        7.598226        6.170789       13.850943 # A4B6
   1080   215     2        0.000000        7.100129        6.127211       13.850943 # A4B6
   1081   217     1        0.000000        5.040195        5.061935       14.471036 # A4B6
   1082   217     1        0.000000        5.040195        5.561935       14.471036 # A4B6
   1083   217     1        0.000000        5.040195        6.061935       14.471036 # A4B6
   1084   217     1        0.000000        4.690195        6.411935       14.471036 # A4B6
   1085   217     2        0.000000        5.040195        6.761935       14.471036 # A4B6
   1086   217     2        0.000000        4.690195        7.111935       14.471036 # A4B6
   1087   217     2        0.000000        5.040195        7.461935       14.471036 # A4B6
   1088   217     2        0.000000        4.690195        7.811935       14.471036 # A4B6
   1089   217     2        0.000000        4.190195        7.811935       14.471036 # A4B6
   1090   217     2        0.000000        4.190195        7.311935       14.471036 # A4B6
   1091   219     1        0.000000        4.929762        5.048024       14.824936 # A4B6
   1092   219     1        0.000000        4.496750        5.298024       14.824936 # A4B6
   1093   219     1        0.000000        4.063737        5.548024       14.824936 # A4B6
   1094   219     1        0.000000        3.585628        5.419915       14.824936 # A4B6
   1095   219     2        0.000000        3.457519        5.898024       14.824936 # A4B6
   1096   219     2        0.000000        2.979410        5.769915       14.824936 # A4B6
   1097   219     2        0.000000        2.851301        6.248024       14.824936 # A4B6
   1098   219     2        0.000000        2.373193        6.119915       14.824936 # A4B6
   1099   219     2        0.000000        2.123193        5.686902       14.824936 # A4B6
   1100   219     2        0.000000        2.556205        5.436902       14.824936 # A4B6
   1101   221     1        0.000000        5.019645        4.935051       14.781346 # A4B6
   1102   221     1        0.000000        4.586633        4.685051       14.781346 # A4B6
   1103   221     1        0.000000        4.153620        4.435051       14.781346 # A4B6
   1104   221     1        0.000000        4.025511        3.956942       14.781346 # A4B6
   1105   221     2        0.000000        3.547402        4.085051       14.781346 # A4B6
   1106   221     2        0.000000        3.419293        3.606942       14.781346 # A4B6
   1107   221     2        0.000000        2.941184        3.735051       14.781346 # A4B6
   1108   221     2        0.000000        2.813075        3.256942       14.781346 # A4B6
   1109   221     2        0.000000        3.063075        2.823929       14.781346 # A4B6
   1110   221     2        0.000000        3.496088        3.073929       14.781346 # A4B6
   1111   223     1        0.000000        4.910404        4.922453       14.742703 # A4B6
   1112   223     1        0.000000        4.910404        4.422453       14.742703 # A4B6
   1113   223     1        0.000000        4.910404        3.922453       14.742703 # A4B6
   1114   223     1        0.000000        5.260404        3.572453       14.742703 # A4B6
   1115   223     2        0.000000        4.910404        3.222453       14.742703 # A4B6
   1116   223     2        0.000000        5.260404        2.872453       14.742703 # A4B6
   1117   223     2        0.000000        4.910404        2.522453       14.742703 # A4B6
   1118   223     2        0.000000        5.260404        2.172453       14.742703 # A4B6
   1119   223     2        0.000000        5.760404        2.172453       14.742703 # A4B6
   1120   223     2        0.000000        5.760404        2.672453       14.742703 # A4B6
   1121   225     1        0.000000        5.099692        4.908878       15.096377 # A4B6
   1122   225     1        0.000000        5.532704        4.658878       15.096377 # A4B6
   1123   225     1        0.000000        5.965717        4.408878       15.096377 # A4B6
   1124   225     1        0.000000        6.443826        4.536987       15.096377 # A4B6
   1125   225     2        0.000000        6.571935        4.058878       15.096377 # A4B6
   1126   225     2        0.000000        7.050044        4.186987       15.096377 # A4B6
   1127   225     2        0.000000        7.178153        3.708878       15.096377 # A4B6
   1128   225     2        0.000000        7.656262        3.836987       15.096377 # A4B6
   1129   225     2        0.000000        7.906262        4.270000       15.096377 # A4B6
   1130   225     2        0.000000        7.473249        4.520000       15.096377 # A4B6
   1131   227     1        0.000000        5.090890        4.997399       15.060800 # A4B6
   1132   227     1        0.000000        5.523903        5.247399       15.060800 # A4B6
   1133   227     1        0.000000        5.956915        5.497399       15.060800 # A4B6
   1134   227     1        0.000000        6.085024        5.975508       15.060800 # A4B6
   1135   227     2        0.000000        6.563133        5.847399       15.060800 # A4B6
   1136   227     2        0.000000        6.691242        6.325508       15.060800 # A4B6
   1137   227     2        0.000000        7.169351        6.197399       15.060800 # A4B6
   1138   227     2        0.000000        7.297460        6.675508       15.060800 # A4B6
   1139   227     2        0.000000        7.047460        7.108521       15.060800 # A4B6
   1140   227     2        0.000000        6.614447        6.858521       15.060800 # A4B6
   1141   229     1        0.000000        5.040195        5.061935       15.271036 # A4B6
   1142   229     1        0.000000        4.828886        5.515089       15.271036 # A4B6
   1143   229     1        0.000000        4.617577        5.968243       15.271036 # A4B6
   1144   229     1        0.000000        4.152453        6.137534       15.271036 # A4B6
   1145   229     2        0.000000        4.321744        6.602659       15.271036 # A4B6
   1146   229     2        0.000000        3.856620        6.771950       15.271036 # A4B6
   1147   229     2        0.000000        4.025911        7.237074       15.271036 # A4B6
   1148   229     2        0.000000        3.560787        7.406365       15.271036 # A4B6
   1149   229     2        0.000000        3.107633        7.195056       15.271036 # A4B6
   1150   229     2        0.000000        3.318943        6.741902       15.271036 # A4B6
   1151   231     1        0.000000        5.001180        4.930874       15.466914 # A4B6
   1152   231     1        0.000000        4.503083        4.974452       15.466914 # A4B6
   1153   231     1        0.000000        4.004985        5.018029       15.466914 # A4B6
   1154   231     1        0.000000        3.625813        4.699866       15.466914 # A4B6
   1155   231     2        0.000000        3.307649        5.079038       15.466914 # A4B6
   1156   231     2        0.000000        2.928476        4.760875       15.466914 # A4B6
   1157   231     2        0.000000        2.610313        5.140047       15.466914 # A4B6
   1158   231     2        0.000000        2.231140        4.821884       15.466914 # A4B6
   1159   231     2        0.000000        2.187562        4.323786       15.466914 # A4B6
   1160   231     2        0.000000        2.685659        4.280209       15.466914 # A4B6
   1161   233     1        0.000000        5.063885        5.001258       15.270651 # A4B6
   1162   233     1        0.000000        4.777096        4.591682       15.270651 # A4B6
   1163   233     1        0.000000        4.490308        4.182106       15.270651 # A4B6
   1164   233     1        0.000000        4.576260        3.694651       15.270651 # A4B6
   1165   233     2        0.000000        4.088805        3.608700       15.270651 # A4B6
   1166   233     2        0.000000        4.174756        3.121245       15.270651 # A4B6
   1167   233     2        0.000000        3.687301        3.035293       15.270651 # A4B6
   1168   233     2        0.000000        3.773253        2.547838       15.270651 # A4B6
   1169   233     2        0.000000        4.182829        2.261050       15.270651 # A4B6
   1170   233     2        0.000000        4.469617        2.670626       15.270651 # A4B6
   1171   235     1        0.000000        4.925340        5.070638       15.468299 # A4B6
   1172   235     1        0.000000        5.136649        4.617484       15.468299 # A4B6
   1173   235     1        0.000000        5.347958        4.164330       15.468299 # A4B6
   1174   235     1        0.000000        5.813082        3.995039       15.468299 # A4B6
   1175   235     2        0.000000        5.643791        3.529914       15.468299 # A4B6
   1176   235     2        0.000000        6.108915        3.360623       15.468299 # A4B6
   1177   235     2        0.000000        5.939623        2.895499       15.468299 # A4B6
   1178   235     2        0.000000        6.404747        2.726208       15.468299 # A4B6
   1179   235     2        0.000000        6.857901        2.937517       15.468299 # A4B6
   1180   235     2        0.000000        6.646592        3.390671       15.468299 # A4B6
   1181   237     1        0.000000        4.986221        5.039122       15.664877 # A4B6
   1182   237     1        0.000000        5.484318        4.995544       15.664877 # A4B6
   1183   237     1        0.000000        5.982416        4.951966       15.664877 # A4B6
   1184   237     1        0.000000        6.361588        5.270130       15.664877 # A4B6
   1185   237     2        0.000000        6.679752        4.890957       15.664877 # A4B6
   1186   237     2        0.000000        7.058925        5.209121       15.664877 # A4B6
   1187   237     2        0.000000        7.377088        4.829948       15.664877 # A4B6
   1188   237     2        0.000000        7.756261        5.148112       15.664877 # A4B6
   1189   237     2        0.000000        7.799839        5.646209       15.664877 # A4B6
   1190   237     2        0.000000        7.301741        5.689787       15.664877 # A4B6
   1191   239     1        0.000000        5.048998        5.009816       15.868607 # A4B6
   1192   239     1        0.000000        5.335786        5.419392       15.868607 # A4B6
   1193   239     1        0.000000        5.622574        5.828968       15.868607 # A4B6
   1194   239     1        0.000000        5.536623        6.316423       15.868607 # A4B6
   1195   239     2        0.000000        6.024078        6.402375       15.868607 # A4B6
   1196   239     2        0.000000        5.938127        6.889830       15.868607 # A4B6
   1197   239     2        0.000000        6.425582        6.975781       15.868607 # A4B6
   1198   239     2        0.000000        6.339630        7.463236       15.868607 # A4B6
   1199   239     2        0.000000        5.930054        7.750024       15.868607 # A4B6
   1200   239     2        0.000000        5.643266        7.340448       15.868607 # A4B6
   1201     0     3        0.000000        7.589841        3.296963        9.127036
   1202     0     3        0.000000        0.067261        1.512643       15.737661
   1203     0     3        0.000000        3.628386        0.140747       14.916594
   1204     0     3        0.000000        5.032170        7.034541        0.369660
   1205     0     3        0.000000        9.700009        1.077386        4.488486
   1206     0     3        0.000000        8.933710        4.056083       15.506090
   1207     0     3        0.000000        9.155120        1.229398       11.113283
   1208     0     3        0.000000        3.339654        9.844953       14.827331
   1209     0     3        0.000000        2.108241        3.473339       15.052526
   1210     0     3        0.000000        1.431112        8.505509       10.307791
   1211     0     3        0.000000        1.662149        8.205518       12.031609
   1212     0     3        0.000000        4.158759        9.229893        9.627814
   1213     0     3        0.000000        5.353294        8.385013       11.594851
   1214     0     3        0.000000        2.299097        4.569233        6.405171
   1215     0     3        0.000000        9.589420        2.368451       13.359237
   1216     0     3        0.000000        0.176706        5.872066        4.420919
   1217     0     3        0.000000        2.276635        9.211720        4.172844
   1218     0     3        0.000000        1.543717        1.319961        9.730185
   1219     0     3        0.000000        0.951546        2.751073        7.339000
   1220     0     3        0.000000        7.393916        4.413223        4.467828
   1221     0     3        0.000000        4.913671        8.880676       15.890593
   1222     0     3        0.000000        6.489510        3.039435       14.658423
   1223     0     3        0.000000        2.506894        8.392729       12.074444
   1224     0     3        0.000000        9.753676        0.691826        3.385216
   1225     0     3        0.000000        3.756908        0.281246        7.174737
   1226     0     3        0.000000        2.106431        0.457952        0.570043
   1227     0     3        0.000000        8.145773        2.623766       12.883606
   1228     0     3        0.000000        0.938166        7.537437       11.092687
   1229     0     3        0.000000        0.869787        4.026947       15.955783
   1230     0     3        0.000000        0.031301        6.533841       13.384150
   1231     0     3        0.000000        7.577828        6.287517       14.491072
   1232     0     3        0.000000        9.693588        0.044425       14.941065
   1233     0     3        0.000000        4.534076        7.020361        4.049126
   1234     0     3        0.000000        4.990030        8.056792        3.262173
   1235     0     3        0.000000        8.629061        6.202565        7.460198
   1236     0     3        0.000000        3.614244        8.010518        9.963212
   1237     0     3        0.000000        3.586608        8.041820        4.417358
   1238     0     3        0.000000        1.008622        5.313236       14.548464
   1239     0     3        0.000000        0.346788        9.491035        1.989833
   1240     0     3        0.000000        0.142904        4.025111       13.222409
   1241     0     3        0.000000        2.673608        8.127183        4.419038
   1242     0     3        0.000000        9.482616        3.117213        1.309905
   1243     0     3        0.000000        1.521474        1.746273       11.234010
   1244     0     3        0.000000        6.184098        8.427588        6.659180
   1245     0     3        0.000000        8.384158        2.041831        3.476010
   1246     0     3        0.000000        7.372014        7.580142        9.334358
   1247     0     3        0.000000        6.420380        8.588764        1.835536
   1248     0     3        0.000000        5.513170        8.935551        1.021193
   1249     0     3        0.000000        6.756815        9.078456        7.461371
   1250     0     3        0.000000        5.020821        1.752064        4.464864
   1251     0     3        0.000000        7.782720        1.234680        9.452404
   1252     0     3        0.000000        8.601411        2.756154       12.246442
   1253     0     3        0.000000        5.622667        8.940252        9.730582
   1254     0     3        0.000000        9.784655        7.324410       12.997512
   1255     0     3        0.000000        1.957161        1.935575        6.003015
   1256     0     3        0.000000        2.171486        9.307589        2.131242
   1257     0     3        0.000000        9.152670        1.241139       14.170146
   1258     0     3        0.000000        9.790916        7.997954       12.695675
   1259     0     3        0.000000        7.244812        0.801495        1.474466
   1260     0     3        0.000000        3.152565        9.402906        5.884313
   1261     0     3        0.000000        0.806591        5.025573        4.188716
   1262     0     3        0.000000        8.763534        8.938874        1.896835
   1263     0     3        0.000000        0.095561        6.944334       11.061585
   1264     0     3        0.000000        0.016351        6.097004       13.047407
   1265     0     3        0.000000        8.872692        5.887920        9.844134
   1266     0     3        0.000000        6.807489        0.342193       14.674174
   1267     0     3        0.000000        7.415892        0.739570       15.001215
   1268     0     3        0.000000        1.093588        1.546161        7.042131
   1269     0     3        0.000000        3.711535        8.434365       14.738495
   1270     0     3        0.000000        5.531826        2.209549        7.868514
   1271     0     3        0.000000        6.717348        2.305110        2.979449
   1272     0     3        0.000000        1.785468        1.194152        6.155328
   1273     0     3        0.000000        7.938052        8.001641        6.702836
   1274     0     3        0.000000        7.109410        4.495992        2.842044
   1275     0     3        0.000000        7.082264        1.911884        4.025356
   1276     0     3        0.000000        6.458023        3.005471        6.499214
   1277     0     3        0.000000        0.859355        6.717007        3.994198
   1278     0     3        0.000000        0.070915        0.370900        9.507822
   1279     0     3        0.000000        0.967683        2.620073        0.731276
   1280     0     3        0.000000        0.788999        8.036380        6.356257
   1281     0     3        0.000000        8.825351        3.083842       10.352470
   1282     0     3        0.000000        0.601629        0.166105       13.411484
   1283     0     3        0.000000        3.117477        6.624129        2.220238
   1284     0     3        0.000000        9.675859        7.554398       13.560888
   1285     0     3        0.000000        5.618248        3.604260        7.005249
   1286     0     3        0.000000        7.005742        8.190780        2.057032
   1287     0     3        0.000000        0.978402        2.826859       11.616123
   1288     0     3        0.000000        2.952704        1.652210        0.550269
   1289     0     3        0.000000        9.422998        2.253840        0.816038
   1290     0     3        0.000000        9.192824        2.550802        7.388218
   1291     0     3        0.000000        7.297479        2.226661        3.475255
   1292     0     3        0.000000        5.773034        7.844909        9.242071
   1293     0     3        0.000000        0.151315        1.615095        0.557181
   1294     0     3        0.000000        0.398935        2.848071        9.505281
   1295     0     3        0.000000        1.684580        3.826473       14.028255
   1296     0     3        0.000000        8.944657        6.779177        0.671792
   1297     0     3        0.000000        9.288575        6.202175        4.277935
   1298     0     3        0.000000        9.798599        4.007350       12.872041
   1299     0     3        0.000000        6.932751        3.200174        0.953324
   1300     0     3        0.000000        1.550388        0.497653        4.515981
   1301     0     3        0.000000        9.498717        6.422003        3.651987
   1302     0     3        0.000000        9.846954        3.571672       12.999713
   1303     0     3        0.000000        3.444039        0.619769        7.981186
   1304     0     3        0.000000        4.039866        2.170156        8.777431
   1305     0     3        0.000000        7.529752        5.391295       13.085735
   1306     0     3        0.000000        9.812244        5.238249        2.800410
   1307     0     3        0.000000        7.937065        2.835223        9.153380
   1308     0     3        0.000000        8.909956        6.372998        2.201679
   1309     0     3        0.000000        3.709321        8.678432        9.561428
   1310     0     3        0.000000        5.287863        1.403736       15.782897
   1311     0     3        0.000000        4.856648        0.246788        6.673754
   1312     0     3        0.000000        9.844889        4.286654       10.146004
   1313     0     3        0.000000        5.330784        1.149009        3.574129
   1314     0     3        0.000000        7.087366        8.678761       12.200200
   1315     0     3        0.000000        5.265950        8.491005        4.581399
   1316     0     3        0.000000        2.737069        5.338026        3.314552
   1317     0     3        0.000000        4.113118        9.047347        1.200043
   1318     0     3        0.000000        0.089011        4.335211        3.446020
   1319     0     3        0.000000        9.953321        7.403791       14.330418
   1320     0     3        0.000000        3.504649        2.260439       14.725278
   1321     0     3        0.000000        7.675746        2.105329        5.583925
   1322     0     3        0.000000        3.875954        9.789428        2.893964
   1323     0     3        0.000000        2.437926        9.542703        5.719716
   1324     0     3        0.000000        6.369822        7.202803       10.594578
   1325     0     3        0.000000        9.063074        8.895547        9.860885
   1326     0     3        0.000000        7.019758        9.022330        0.761536
   1327     0     3        0.000000        8.828486        5.761659       11.650551
   1328     0     3        0.000000        7.065282        8.199585       10.918876
   1329     0     3        0.000000        0.640105        2.709106        0.768191
   1330     0     3        0.000000        3.262275        7.968654        6.759922
   1331     0     3        0.000000        0.219655        5.381964       12.676967
   1332     0     3        0.000000        4.580827        1.751786        8.201451
   1333     0     3        0.000000        1.202438        7.324906        0.007129
   1334     0     3        0.000000        9.929379        6.387980       14.240004
   1335     0     3        0.000000        6.092432        0.090015        6.474206
   1336     0     3        0.000000        1.360815        3.643646       15.582494
   1337     0     3        0.000000        1.840934        6.905921       12.332340
   1338     0     3        0.000000        6.065885        7.125576        4.943483
   1339     0     3        0.000000        3.988989        1.706403        7.746340
   1340     0     3        0.000000        9.114896        2.908842        3.466190
   1341     0     3        0.000000        9.119352        2.838220       13.686958
   1342     0     3        0.000000        8.019354        8.930652       13.830983
   1343     0     3        0.000000        0.994762        8.861869       13.343335
   1344     0     3        0.000000        0.733821        0.702803        8.392808
   1345     0     3        0.000000        8.441534        6.768688        3.793730
   1346     0     3        0.000000        1.531210        0.757677        6.523975
   1347     0     3        0.000000        6.372673        9.872573       11.178122
   1348     0     3        0.000000        8.539042        8.991925       15.719274
   1349     0     3        0.000000        7.093391        7.011279       14.008316
   1350     0     3        0.000000        5.737755        9.077012        7.143700
   1351     0     3        0.000000        1.491893        4.211454       11.886959
   1352     0     3        0.000000        3.184289        8.176264        7.888646
   1353     0     3        0.000000        7.880227        9.171026        6.067637
   1354     0     3        0.000000        6.219812        9.904847        7.192122
   1355     0     3        0.000000        1.465317        8.346381        2.022022
   1356     0     3        0.000000        3.836399        9.877591        3.234306
   1357     0     3        0.000000        7.913883        6.250264        3.030423
   1358     0     3        0.000000        3.479953        7.620452       11.158770
   1359     0     3        0.000000        7.944766        9.112344        1.897096
   1360     0     3        0.000000        0.304519        0.176861       13.652760
   1361     0     3        0.000000        8.591868        7.861990       10.854725
   1362     0     3        0.000000        9.855632        1.698388       10.658871
   1363     0     3        0.000000        1.877073        9.612272        4.659293
   1364     0     3        0.000000        4.657027        9.237237       15.334498
   1365     0     3        0.000000        2.554246        2.717190       11.527220
   1366     0     3        0.000000        9.528477        0.661956       10.106971
   1367     0     3        0.000000        0.714163        6.036071       13.781584
   1368     0     3        0.000000        0.076112        6.340590       14.064562
   1369     0     3        0.000000        8.609087        0.437382        8.299238
   1370     0     3        0.000000        7.046909        9.029250        4.878422
   1371     0     3        0.000000        3.831113        8.884882        7.595843
   1372     0     3        0.000000        0.492907        0.761955        6.975478
   1373     0     3        0.000000        1.106330        9.190070       12.975027
   1374     0     3        0.000000        0.690391        1.744316        1.322531
   1375     0     3        0.000000        7.894903        1.272794        2.381660
   1376     0     3        0.000000        4.211760        1.986956       12.039374
   1377     0     3        0.000000        2.825250        2.063068        6.184318
   1378     0     3        0.000000        1.615601        0.672155        6.884129
   1379     0     3        0.000000        6.802625        7.719064        5.330929
   1380     0     3        0.000000        9.851639        1.550177        3.546741
   1381     0     3        0.000000        4.599041        2.043084        4.765869
   1382     0     3        0.000000        8.958714        5.448049       12.018738
   1383     0     3        0.000000        7.830869        6.554379       10.722849
   1384     0     3        0.000000        8.255380        9.351433        2.729355
   1385     0     3        0.000000        5.779989        2.176683        6.030264
   1386     0     3        0.000000        9.645188        3.792284        7.105712
   1387     0     3        0.000000        3.947768        0.594909        3.456214
   1388     0     3        0.000000        7.279599        0.446548        5.936497
   1389     0     3        0.000000        9.496312        5.045588        9.205431
   1390     0     3        0.000000        9.986691        1.835172       12.409314
   1391     0     3        0.000000        6.559307        8.577645        2.669407
   1392     0     3        0.000000        0.328222        8.222833        8.737061
   1393     0     3        0.000000        4.769291        2.170601        9.688916
   1394     0     3        0.000000        6.929425        9.450200       10.403392
   1395     0     3        0.000000        0.639736        8.946512        2.476333
   1396     0     3        0.000000        6.393130        1.421492        8.883218
   1397     0     3        0.000000        7.594573        1.408183       11.819494
   1398     0     3        0.000000        0.350985        3.231224       15.527829
   1399     0     3        0.000000        0.491248        8.084683        4.004079
   1400     0     3        0.000000        9.982945        4.643990        1.728311
   1401     0     3        0.000000        1.651324        4.972212       14.884844
   1402     0     3        0.000000        7.111987        9.741503        2.357805
   1403     0     3        0.000000        9.669679        7.310664       15.792544
   1404     0     3        0.000000        1.217388        3.703794        2.066931
   1405     0     3        0.000000        6.769399        1.298367        4.320023
   1406     0     3        0.000000        9.319199        6.999746        6.444628
   1407     0     3        0.000000        9.024092        7.490995        3.380122
   1408     0     3        0.000000        1.526641        7.473939       10.810506
   1409     0     3        0.000000        2.606836        9.125263        2.766045
   1410     0     3        0.000000        1.909863        6.237250        2.352450
   1411     0     3        0.000000        3.383492        9.404809       13.025935
   1412     0     3        0.000000        4.307320        9.074488        8.722998
   1413     0     3        0.000000        4.177660        0.291876       14.649069
   1414     0     3        0.000000        5.469491        7.061275        0.726456
   1415     0     3        0.000000        8.169506        1.217857       11.364473
   1416     0     3        0.000000        8.966175        0.537057        6.564067
   1417     0     3        0.000000        2.994068        9.561149        2.549658
   1418     0     3        0.000000        5.106644        1.087790       14.507961
   1419     0     3        0.000000        1.863210        3.694626       13.108382
   1420     0     3        0.000000        5.062270        8.987981        6.135677
   1421     0     3        0.000000        3.203479        3.295301        4.654858
   1422     0     3        0.000000        8.655353        7.472960        5.121859
   1423     0     3        0.000000        7.811021        2.942452        0.419899
   1424     0     3        0.000000        8.265056        1.111957        2.368470
   1425     0     3        0.000000        5.367852        0.078132        3.227761
   1426     0     3        0.000000        9.470394        3.072200        2.525599
   1427     0     3        0.000000        1.063930        8.178844        4.266063
   1428     0     3        0.000000        0.131406        0.042054       10.177465
   1429     0     3        0.000000        8.324145        3.634042        3.144648
   1430     0     3        0.000000        2.754134        8.696312        1.525418
   1431     0     3        0.000000        6.588932        1.899791        6.797899
   1432     0     3        0.000000        9.498218        0.555145        2.754635
   1433     0     3        0.000000        2.699380        8.366166        7.462558
   1434     0     3        0.000000        2.961816        6.631222        9.241689
   1435     0     3        0.000000        4.442110        1.999073        9.366701
   1436     0     3        0.000000        6.459461        1.469467       14.282221
   1437     0     3        0.000000        8.037960        2.533397       11.368371
   1438     0     3        0.000000        0.704250        2.664803       11.435657
   1439     0     3        0.000000        7.065165        0.988948        1.250125
   1440     0     3        0.000000        9.030571        3.743082       15.164224
   1441     0     3        0.000000        9.983957        0.332013        2.203890
   1442     0     3        0.000000        4.232643        9.830231        3.092122
   1443     0     3        0.000000        5.954290        2.529611        0.477987
   1444     0     3        0.000000        0.618389        5.491427       11.087941
   1445     0     3        0.000000        6.394445        9.933537       14.286459
   1446     0     3        0.000000        2.248633        6.392998        0.637606
   1447     0     3        0.000000        1.175021        4.430958        4.691042
   1448     0     3        0.000000        8.280252        5.135208        8.954727
   1449     0     3        0.000000        6.208866        1.230944        0.525975
   1450     0     3        0.000000        5.686506        1.214900        1.057197
   1451     0     3        0.000000        8.996514        1.401834        4.832943
   1452     0     3        0.000000        9.295255        2.020223       13.619226
   1453     0     3        0.000000        6.225219        8.414668       13.512886
   1454     0     3        0.000000        5.154256        0.663300        7.741682
   1455     0     3        0.000000        8.484660        0.118573        7.047547
   1456     0     3        0.000000        0.667017        1.754977       12.537655
   1457     0     3        0.000000        0.995752        7.441483       14.481495
   1458     0     3        0.000000        1.656500        4.505421        7.197566
   1459     0     3        0.000000        2.147479        3.501934        9.440500
   1460     0     3        0.000000        3.680085        9.022408       10.136325
   1461     0     3        0.000000        2.125639        4.176664       11.197606
   1462     0     3        0.000000        6.964190        9.729423       14.138920
   1463     0     3        0.000000        6.233700        8.214084       14.328637
   1464     0     3        0.000000        0.638417        2.295448        7.202414
   1465     0     3        0.000000        8.628954        7.762197        2.728518
   1466     0     3        0.000000        2.449803        6.610351        5.639875
   1467     0     3        0.000000        8.785006        8.735989       12.322537
   1468     0     3        0.000000        4.620335        1.933879        9.032148
   1469     0     3        0.000000        8.077241        9.815803        1.444810
   1470     0     3        0.000000        8.031697        9.025820        0.761507
   1471     0     3        0.000000        6.235086        7.654774       13.181022
   1472     0     3        0.000000        7.940410        2.184041        1.869447
   1473     0     3        0.000000        5.967845        3.418850       10.423590
   1474     0     3        0.000000        3.669431        9.202360        3.543878
   1475     0     3        0.000000        1.100440        3.822695        6.638084
   1476     0     3        0.000000        6.745532        7.398427       10.753757
   1477     0     3        0.000000        5.589079        9.809396        2.291591
   1478     0     3        0.000000        0.450303        7.841092        0.732903
   1479     0     3        0.000000        0.926245        4.076179       12.980541
   1480     0     3        0.000000        9.164383        2.016589        0.475007
   1481     0     3        0.000000        0.332787        4.459512        7.889157
   1482     0     3        0.000000        8.111542        0.427358       13.359318
   1483     0     3        0.000000        4.626286        4.096788       12.083093
   1484     0     3        0.000000        0.990012        1.942760       14.036888
   1485     0     3        0.000000        4.248011        2.217911        6.492991
   1486     0     3        0.000000        9.478761        1.203170        4.606159
   1487     0     3        0.000000        6.754895        3.660678        6.585000
   1488     0     3        0.000000        5.527950        1.371788        1.191131
   1489     0     3        0.000000        9.776674        5.619799        4.739788
   1490     0     3        0.000000        3.834793        1.300054        9.008929
   1491     0     3        0.000000        5.734005        7.438373       14.760061
   1492     0     3        0.000000        1.709395        1.689531        3.174207
   1493     0     3        0.000000        9.701375        6.237568        8.120812
   1494     0     3        0.000000        2.152866        5.716328       10.045885
   1495     0     3        0.000000        2.007353        8.924930        7.646081
   1496     0     3        0.000000        8.295843        1.207775       15.698027
   1497     0     3        0.000000        9.040299        0.984449        8.689705
   1498     0     3        0.000000        2.002667        4.819242       10.769791
   1499     0     3        0.000000        7.633247        0.553247        6.671188
   1500     0     3        0.000000        6.858285        2.262642        9.374437
   1501     0     3        0.000000        8.842164        1.964016        3.354545
   1502     0     3        0.000000        0.196350        9.148598        2.172130
   1503     0     3        0.000000        2.304485        1.155950        0.452018
   1504     0     3        0.000000        0.765097        4.674977        4.758084
   1505     0     3        0.000000        7.496216        2.308224        5.643279
   1506     0     3        0.000000        1.665709        9.166509        9.263505
   1507     0     3        0.000000        7.524732        8.008674       12.405932
   1508     0     3        0.000000        9.621323        1.926346        2.992943
   1509     0     3        0.000000        7.434242        2.122696        1.630700
   1510     0     3        0.000000        8.791824        4.427181        3.480220
   1511     0     3        0.000000        9.074335        1.510466       12.018089
   1512     0     3        0.000000        5.036671        7.033230        1.829307
   1513     0     3        0.000000        2.206783        2.367262        6.105004
   1514     0     3        0.000000        0.361343        3.132358       13.584967
   1515     0     3        0.000000        3.335146        0.628575        1.278125
   1516     0     3        0.000000        6.862195        2.294283       15.944540
   1517     0     3        0.000000        2.651886        9.819015       12.758418
   1518     0     3        0.000000        0.405593        9.440338       15.840571
   1519     0     3        0.000000        2.276183        6.874580        3.236885
   1520     0     3        0.000000        3.295370        5.666403       10.320374
   1521     0     3        0.000000        2.981814        9.777409        7.990288
   1522     0     3        0.000000        4.125131        1.984192       11.777907
   1523     0     3        0.000000        7.940758        2.345535        0.789681
   1524     0     3        0.000000        6.431362        5.680681        1.795400
   1525     0     3        0.000000        7.230190        2.542876        5.466253
   1526     0     3        0.000000        7.195528        5.194762        5.176677
   1527     0     3        0.000000        5.069896        7.876537       15.280545
   1528     0     3        0.000000        7.092949        1.171907        8.346790
   1529     0     3        0.000000        1.503883        9.624229       15.575826
   1530     0     3        0.000000        3.859005        1.690117        6.503389
   1531     0     3        0.000000        4.352555        8.121479       15.592478
   1532     0     3        0.000000        8.891089        2.547198       11.972698
   1533     0     3        0.000000        2.126512        7.716737        4.933266
   1534     0     3        0.000000        4.352614        9.879583        3.410777
   1535     0     3        0.000000        9.569358        3.422766       14.038641
   1536     0     3        0.000000        9.526840        4.926649       13.437407
   1537     0     3        0.000000        9.261731        1.424462        3.436381
   1538     0     3        0.000000        0.980814        5.283467        6.140568
   1539     0     3        0.000000        5.045431        9.636022        3.134935
   1540     0     3        0.000000        7.078905        4.001791       15.773123
   1541     0     3        0.000000        7.645132        0.930576        0.578515
   1542     0     3        0.000000        8.604961        5.283190        0.385848
   1543     0     3        0.000000        0.736696        4.852548        5.862273
   1544     0     3        0.000000        9.510847        4.379388       13.744912
   1545     0     3        0.000000        7.909226        3.641118        0.024051
   1546     0     3        0.000000        0.056964        4.621932        8.477598
   1547     0     3        0.000000        3.894819        9.667363        7.895233
   1548     0     3        0.000000        3.165158        1.536999        6.475223
   1549     0     3        0.000000        3.023359        6.098840        0.280508
   1550     0     3        0.000000        0.598298        3.743972        1.769431
   1551     0     3        0.000000        0.959870        2.348933       10.222535
   1552     0     3        0.000000        1.201025        3.085629        1.986612
   1553     0     3        0.000000        3.455516        0.505701       14.819421
   1554     0     3        0.000000        3.470547        0.562666        6.214512
   1555     0     3        0.000000        8.769046        4.457485        5.682294
   1556     0     3        0.000000        3.703566        0.311638       12.815244
   1557     0     3        0.000000        7.795804        6.500155        9.032586
   1558     0     3        0.000000        7.971122        7.098453       15.022942
   1559     0     3        0.000000        9.077016        8.058323        2.781235
   1560     0     3        0.000000        5.466100        9.259348        7.718242
   1561     0     3        0.000000        6.707733        4.124294       11.872603
   1562     0     3        0.000000        2.328753        7.579810       12.681725
   1563     0     3        0.000000        1.590891        1.050357       13.581990
   1564     0     3        0.000000        5.474961        9.819403        4.713966
   1565     0     3        0.000000        9.026395        3.522969        5.212587
   1566     0     3        0.000000        6.582448        5.067563        5.175709
   1567     0     3        0.000000        2.227815        3.038685        0.533235
   1568     0     3        0.000000        1.617154        2.115701       13.426552
   1569     0     3        0.000000        3.355426        7.581801       12.241509
   1570     0     3        0.000000        8.179327        4.289534        2.840380
   1571     0     3        0.000000        5.599703        6.618286       14.968076
   1572     0     3        0.000000        3.525782        8.209177        0.648648
   1573     0     3        0.000000        2.014525        3.684139        0.359692
   1574     0     3        0.000000        4.960754        2.710533        5.996443
   1575     0     3        0.000000        8.218621        9.746456        1.631258
   1576     0     3        0.000000        8.188102        8.556719       14.601255
   1577     0     3        0.000000        8.521374        0.173873        1.986377
   1578     0     3        0.000000        4.563912        1.708625        4.980513
   1579     0     3        0.000000        5.694198        0.834110       12.704455
   1580     0     3        0.000000        6.099602        2.848635        2.599077
   1581     0     3        0.000000        6.324410        7.809389        6.935930
   1582     0     3        0.000000        0.072187        6.028010        6.530259
   1583     0     3        0.000000        1.091723        0.981294        0.656506
   1584     0     3        0.000000        7.178823        9.169396       14.347257
   1585     0     3        0.000000        6.304607        7.690770       14.625453
   1586     0     3        0.000000        6.369379        9.167651        7.006130
   1587     0     3        0.000000        9.482200        5.506801        2.699455
   1588     0     3        0.000000        9.213307        1.200998        4.034031
   1589     0     3        0.000000        7.153591        7.300601        8.591848
   1590     0     3        0.000000        8.778014        3.625011        5.086870
   1591     0     3        0.000000        7.604698        1.967744       14.972790
   1592     0     3        0.000000        6.571734        8.272351       11.278021
   1593     0     3        0.000000        8.382848        2.187822        1.312244
   1594     0     3        0.000000        2.761680        1.670022       10.123125
   1595     0     3        0.000000        4.448839        0.883329       12.044723
   1596     0     3        0.000000        6.970109        8.036919        7.725684
   1597     0     3        0.000000        5.519307        9.927903        3.441218
   1598     0     3        0.000000        4.273202        1.298717       11.487646
   1599     0     3        0.000000        1.321966        7.011359        4.797156
   1600     0     3        0.000000        2.974468        5.394208        8.297672
   1601     0     3        0.000000        3.794621        8.155887       10.969707
   1602     0     3        0.000000        0.121574        2.604727       12.383033
   1603     0     3        0.000000        7.649526        9.574836        9.242104
   1604     0     3        0.000000        2.478078        1.914849        4.145997
   1605     0     3        0.000000        0.931641        7.434156        4.030642
   1606     0     3        0.000000        3.082403        2.160768       15.426299
   1607     0     3        0.000000        0.022086        7.075977        6.989473
   1608     0     3        0.000000        8.929514        1.349179        9.067421
   1609     0     3        0.000000        9.107515        5.645613       12.916328
   1610     0     3        0.000000        4.293560        9.440233        9.965748
   1611     0     3        0.000000        1.149626        9.561807       14.133310
   1612     0     3        0.000000        8.889022        7.211333       13.453047
   1613     0     3        0.000000        4.665336        9.689411        0.516806
   1614     0     3        0.000000        7.256585        0.621052       12.411456
   1615     0     3        0.000000        9.775736        3.703455       15.868684
   1616     0     3        0.000000        9.417173        3.725541       11.190247
   1617     0     3        0.000000        3.785593        2.655054       13.348933
   1618     0     3        0.000000        9.452731        8.764347        1.622765
   1619     0     3        0.000000        2.131228        7.871861       10.655745
   1620     0     3        0.000000        0.203933        2.165421        9.760118
   1621     0     3        0.000000        6.432525        3.315047        9.059010
   1622     0     3        0.000000        1.754162        3.901726       11.019410
   1623     0     3        0.000000        1.672090        3.318898        0.980275
   1624     0     3        0.000000        8.665994        7.104491        5.228361
   1625     0     3        0.000000        8.023305        8.688450       15.846294
   1626     0     3        0.000000        4.683146        8.892383        3.310968
   1627     0     3        0.000000        0.783219        5.324908        8.615043
   1628     0     3        0.000000        6.445101        0.590752       12.141553
   1629     0     3        0.000000        9.318315        4.264750        7.132602
   1630     0     3        0.000000        1.880939        8.261752       13.734186
   1631     0     3        0.000000        5.064616        0.015914        3.976947
   1632     0     3        0.000000        1.951747        1.688004        9.287184
   1633     0     3        0.000000        2.564419        0.353997        4.654370
   1634     0     3        0.000000        5.832145        7.363074       15.145925
   1635     0     3        0.000000        7.864217        5.386379       13.047445
   1636     0     3        0.000000        7.768151        0.069525       11.275258
   1637     0     3        0.000000        9.837506        0.852744        3.795111
   1638     0     3        0.000000        5.221908        7.297845        4.740314
   1639     0     3        0.000000        2.810379        6.616160       11.563915
   1640     0     3        0.000000        7.268255        8.497099        8.782718
   1641     0     3        0.000000        8.337712        5.513462       11.508987
   1642     0     3        0.000000        4.142202        8.077881       12.075383
   1643     0     3        0.000000        6.517387        1.774244        0.474508
   1644     0     3        0.000000        4.672040        9.542395        0.585748
   1645     0     3        0.000000        1.719077        9.379901        1.950139
   1646     0     3        0.000000        4.091021        4.601809       13.626690
   1647     0     3        0.000000        7.053717        7.412188        8.212546
   1648     0     3        0.000000        9.770363        0.532563       11.506648
   1649     0     3        0.000000        5.275476        8.870275        4.328188
   1650     0     3        0.000000        0.015707        0.063661        7.508841
   1651     0     3        0.000000        5.222463        1.253089        9.615463
   1652     0     3        0.000000        0.456915        8.398068        3.334408
   1653     0     3        0.000000        4.086855        8.168431        4.186509
   1654     0     3        0.000000        1.278510        3.443906        2.378950
   1655     0     3        0.000000        9.459652        0.854102        1.830450
   1656     0     3        0.000000        1.936586        1.665121        8.590858
   1657     0     3        0.000000        7.326152        8.472514        3.891957
   1658     0     3        0.000000        6.805094        8.340358        4.985401
   1659     0     3        0.000000        9.421662        9.618868       10.495651
   1660     0     3        0.000000        0.908506        3.602496        3.955649
   1661     0     3        0.000000        5.407828        8.369122       13.440779
   1662     0     3        0.000000        9.970811        7.828775       14.807342
   1663     0     3        0.000000        1.114842        3.755696        8.529846
   1664     0     3        0.000000        3.511963        5.692282       11.194040
   1665     0     3        0.000000        8.881249        3.018434        8.750062
   1666     0     3        0.000000        1.313722        0.335960       14.824602
   1667     0     3        0.000000        7.863099        5.057049        5.630206
   1668     0     3        0.000000        2.810544        1.862143        2.974778
   1669     0     3        0.000000        5.926419        1.283806        2.364967
   1670     0     3        0.000000        2.486201        2.192312        8.128960
   1671     0     3        0.000000        2.613557        8.685792        8.054709
   1672     0     3        0.000000        7.944710        2.197755        1.162361
   1673     0     3        0.000000        4.940985        1.079004        5.991855
   1674     0     3        0.000000        0.409774        2.392726        6.529391
   1675     0     3        0.000000        9.675150        0.255824       14.620670
   1676     0     3        0.000000        5.053266        8.992787        3.654188
   1677     0     3        0.000000        6.531370        1.478987        7.161887
   1678     0     3        0.000000        1.611970        6.437469        3.322110
   1679     0     3        0.000000        5.061693        9.796437       15.435630
   1680     0     3        0.000000        1.374383        0.354704        0.849305
   1681     0     3        0.000000        9.926638        5.380614        6.813391
   1682     0     3        0.000000        9.064556        8.574643       11.719580
   1683     0     3        0.000000        0.064618        3.627909       10.108038
   1684     0     3        0.000000        2.348486        0.159280       12.474418
   1685     0     3        0.000000        6.824665        1.771250        6.774368
   1686     0     3        0.000000        8.900984        6.832943        6.448666
   1687     0     3        0.000000        8.548252        3.173133       10.304656
   1688     0     3        0.000000        7.412129        6.648375        3.345285
   1689     0     3        0.000000        9.021948        2.494143       12.474026
   1690     0     3        0.000000        3.024493        2.420781        5.083009
   1691     0     3        0.000000        7.282862        1.485337        2.802438
   1692     0     3        0.000000        4.607599        1.549955        8.607093
   1693     0     3        0.000000        0.925123        3.898441        8.861940
   1694     0     3        0.000000        8.721635        0.723106       11.695940
   1695     0     3        0.000000        2.955614        9.624089        6.628648
   1696     0     3        0.000000        6.986031        8.172341       11.705660
   1697     0     3        0.000000        0.221555        2.465783       13.619086
   1698     0     3        0.000000        2.312358        1.487731        1.609715
   1699     0     3        0.000000        0.108624        4.512224        5.482964
   1700     0     3        0.000000        3.285505        1.795086        7.859502
   1701     0     3        0.000000        0.416461        7.327809        0.576935
   1702     0     3        0.000000        3.265136        9.005058        1.132447
   1703     0     3        0.000000        4.724079        9.417530        6.294039
   1704     0     3        0.000000        6.587633        9.639085       10.239292
   1705     0     3        0.000000        6.105633        2.060067        3.839219
   1706     0     3        0.000000        9.532485        5.345571        6.711356
   1707     0     3        0.000000        4.444674        0.382600        0.955653
   1708     0     3        0.000000        0.906818        0.799061       12.680147
   1709     0     3        0.000000        1.267403        6.754235        6.359256
   1710     0     3        0.000000        2.351093        0.019371        4.767349
   1711     0     3        0.000000        3.058872        7.427412       14.353091
   1712     0     3        0.000000        1.938992        2.151490       13.421139
   1713     0     3        0.000000        5.872767        8.739123       12.843674
   1714     0     3        0.000000        0.159612        9.944317        3.262088
   1715     0     3        0.000000        2.559124        9.476802       11.815003
   1716     0     3        0.000000        9.250631        8.446790        8.543428
   1717     0     3        0.000000        2.230224        1.505662        4.427286
   1718     0     3        0.000000        1.200906        3.444654        7.869671
   1719     0     3        0.000000        9.589117        9.317421        5.852267
   1720     0     3        0.000000        7.616414        1.589745       11.994162
   1721     0     3        0.000000        7.595152        1.749357       11.905069
   1722     0     3        0.000000        9.633957        4.308480       11.067953
   1723     0     3        0.000000        7.018334        1.062202        1.342315
   1724     0     3        0.000000        4.785310        8.413206        9.067587
   1725     0     3        0.000000        8.671619        2.939932        0.335568
   1726     0     3        0.000000        4.011262        5.170156        2.744628
   1727     0     3        0.000000        1.696860        5.960179        7.163948
   1728     0     3        0.000000        5.354527        3.576593        9.707540
   1729     0     3        0.000000        2.850878        1.171745       12.506511
   1730     0     3        0.000000        0.291546        0.805702        3.400080
   1731     0     3        0.000000        7.209016        7.824036        5.099602
   1732     0     3        0.000000        8.047963        2.609346        2.560731
   1733     0     3        0.000000        5.687876        8.643576        5.439755
   1734     0     3        0.000000        2.563315        7.118752        9.169741
   1735     0     3        0.000000        7.040782        2.473279       14.892289
   1736     0     3        0.000000        0.924564        5.615703        2.056205
   1737     0     3        0.000000        6.236866        0.872683        2.749617
   1738     0     3        0.000000        7.837323        4.587888       12.286728
   1739     0     3        0.000000        3.127081        0.066033        3.698429
   1740     0     3        0.000000        1.356772        5.753909        1.528150
   1741     0     3        0.000000        0.258616        2.761274        9.550425
   1742     0     3        0.000000        9.566296        5.869268        2.069076
   1743     0     3        0.000000        0.045722        6.793833       11.054200
   1744     0     3        0.000000        1.330850        9.843447       15.573751
   1745     0     3        0.000000        0.440015        6.080312        0.970043
   1746     0     3        0.000000        9.837730        7.044716        8.416317
   1747     0     3        0.000000        2.149249        8.401488        1.622571
   1748     0     3        0.000000        9.481328        7.685635       15.826841
   1749     0     3        0.000000        2.977065        7.944250        4.244879
   1750     0     3        0.000000        8.946081        7.510547       13.635708
   1751     0     3        0.000000        0.239253        7.556269        8.505840
   1752     0     3        0.000000        7.148128        8.887119        8.255355
   1753     0     3        0.000000        6.881722        9.327134        1.983855
   1754     0     3        0.000000        7.487999        1.485660        8.252071
   1755     0     3        0.000000        2.682164        1.323390        3.523617
   1756     0     3        0.000000        7.942362        3.472639        0.965998
   1757     0     3        0.000000        8.956469        6.576982        6.018970
   1758     0     3        0.000000        3.127753        6.058310        2.315985
   1759     0     3        0.000000        3.019529        9.035375       15.026785
   1760     0     3        0.000000        5.672578        7.981456       11.043660
   1761     0     3        0.000000        4.194895        8.220709        7.133691
   1762     0     3        0.000000        9.511045        5.368837        5.353082
   1763     0     3        0.000000        5.910551        9.738559        6.653552
   1764     0     3        0.000000        1.068096        2.420723        8.770976
   1765     0     3        0.000000        3.270356        0.363085       14.327199
   1766     0     3        0.000000        3.874105        9.319554        8.850369
   1767     0     3        0.000000        7.635961        2.447307        2.543665
   1768     0     3        0.000000        9.083452        5.466835        1.000266
   1769     0     3        0.000000        8.475193        1.139413       13.770595
   1770     0     3        0.000000        9.836037        4.845353        3.513870
   1771     0     3        0.000000        3.181713        9.515995        7.114766
   1772     0     3        0.000000        0.012994        6.494642       10.569616
   1773     0     3        0.000000        5.494854        9.764999       11.150551
   1774     0     3        0.000000        9.980834        1.275065       13.977528
   1775     0     3        0.000000        1.570625        0.358517        6.724464
   1776     0     3        0.000000        2.195791        8.833710        8.547525
   1777     0     3        0.000000        0.802413        4.211190        1.082418
   1778     0     3        0.000000        7.629744        4.047227        8.834983
   1779     0     3        0.000000        9.825913        7.228940        8.060576
   1780     0     3        0.000000        4.272642        3.083464        0.743050
   1781     0     3        0.000000        8.457929        3.096458       11.134478
   1782     0     3        0.000000        5.063939        8.591312       10.758475
   1783     0     3        0.000000        2.033034        3.040665        0.581042
   1784     0     3        0.000000        8.321682        3.021499        2.621146
   1785     0     3        0.000000        7.057636        4.592124        3.194773
   1786     0     3        0.000000        1.260427        6.787915        1.328708
   1787     0     3        0.000000        7.279141        5.220073       14.542176
   1788     0     3        0.000000        7.838865        9.318628       15.042023
   1789     0     3        0.000000        8.303272        7.776557        3.996355
   1790     0     3        0.000000        1.986367        4.873530        6.607518
   1791     0     3        0.000000        2.349518        3.195211       11.441917
   1792     0     3        0.000000        3.987734        0.252848        2.789315
   1793     0     3        0.000000        5.984467        1.513275       13.649979
   1794     0     3        0.000000        6.814910        8.115904        9.794505
   1795     0     3        0.000000        0.945403        8.196051       10.220199
   1796     0     3        0.000000        7.263203        6.034916        9.130003
   1797     0     3        0.000000        9.162189        9.600508       10.117289
   1798     0     3        0.000000        0.251223        1.586875        1.914936
   1799     0     3        0.000000        1.532120        7.924128        7.431831
   1800     0     3        0.000000        3.275442        3.908596        9.853070
   1801     0     3        0.000000        1.806679        0.723506        6.838517
   1802     0     3        0.000000        7.928244        2.580048       15.470590
   1803     0     3        0.000000        9.269883        3.525451       12.584271
   1804     0     3        0.000000        5.657507        0.788654        6.240137
   1805     0     3        0.000000        1.363759        7.453121       13.181237
   1806     0     3        0.000000        4.846568        6.615310       12.542050
   1807     0     3        0.000000        1.169874        6.866533       15.081050
   1808     0     3        0.000000        2.366709        1.247455        5.379280
   1809     0     3        0.000000        1.403650        6.055017        8.311639
   1810     0     3        0.000000        7.561819        7.861696        9.469248
   1811     0     3        0.000000        1.835892        5.789940       13.597325
   1812     0     3        0.000000        1.505011        5.059823        3.238047
   1813     0     3        0.000000        9.370180        0.717330        4.499893
   1814     0     3        0.000000        3.270266        2.081089        0.424886
   1815     0     3        0.000000        1.508539        6.927657       11.009382
   1816     0     3        0.000000        9.347320        8.097531        5.995834
   1817     0     3        0.000000        8.772977        0.464240        7.991762
   1818     0     3        0.000000        2.135027        7.222995       12.439082
   1819     0     3        0.000000        3.421205        8.626645        6.127109
   1820     0     3        0.000000        8.615980        6.188464        2.705822
   1821     0     3        0.000000        3.032588        9.529367        4.065443
   1822     0     3        0.000000        5.056367        8.899547        5.213171
   1823     0     3        0.000000        7.868800        2.169813        8.542914
   1824     0     3        0.000000        8.134354        3.678352        3.627165
   1825     0     3        0.000000        5.015217        3.025672        0.583215
   1826     0     3        0.000000        8.762614        1.798648        1.325998
   1827     0     3        0.000000        1.531891        7.354881       10.685423
   1828     0     3        0.000000        7.052473        0.505120        1.425935
   1829     0     3        0.000000        4.533552        3.537708        0.672922
   1830     0     3        0.000000        7.074454        8.594075       14.912198
   1831     0     3        0.000000        0.332686        6.462875        2.383899
   1832     0     3        0.000000        7.938986        9.612446       13.110336
   1833     0     3        0.000000        8.303495        8.375060       15.988173
   1834     0     3        0.000000        9.132244        2.132525        6.282054
   1835     0     3        0.000000        7.183988        3.664417        2.049863
   1836     0     3        0.000000        3.862377        9.025751       11.603239
   1837     0     3        0.000000        7.620440        0.611776        2.071762
   1838     0     3        0.000000        8.041016        7.686230       15.822282
   1839     0     3        0.000000        7.361140        8.018917       10.162882
   1840     0     3        0.000000        8.851076        3.690924        1.518448
   1841     0     3        0.000000        4.019365        1.629910        0.898362
   1842     0     3        0.000000        2.213325        9.933405       14.298458
   1843     0     3        0.000000        2.205933        9.065649        1.710498
   1844     0     3        0.000000        7.413381        0.112014        6.014767
   1845     0     3        0.000000        4.665405        6.841244       15.739925
   1846     0     3        0.000000        2.422549        4.461684        0.718767
   1847     0     3        0.000000        3.606326        9.863840        9.847002
   1848     0     3        0.000000        9.958127        8.714916       15.752480
   1849     0     3        0.000000        0.907157        2.734281        2.360335
   1850     0     3        0.000000        1.468633        4.947606        2.253783
   1851     0     3        0.000000        0.405169        7.153539        0.758821
   1852     0     3        0.000000        1.474231        3.285756       10.758239
   1853     0     3        0.000000        6.207709        0.699137       10.937461
   1854     0     3        0.000000        9.966938        5.364542        5.883452
   1855     0     3        0.000000        9.804392        7.787091       13.022146
   1856     0     3        0.000000        0.253621        1.504491        1.026466
   1857     0     3        0.000000        8.389080        5.110817        0.808609
   1858     0     3        0.000000        7.272580        7.849904        6.489155
   1859     0     3        0.000000        7.746843        9.324134       11.746364
   1860     0     3        0.000000        1.306656        5.498782        5.448249
   1861     0     3        0.000000        3.122655        5.556794        4.314779
   1862     0     3        0.000000        4.269576        8.489331        4.602398
   1863     0     3        0.000000        3.489873        2.878087       14.164160
   1864     0     3        0.000000        5.444450        8.742053       10.075735
   1865     0     3        0.000000        6.402355        3.761476        5.554196
   1866     0     3        0.000000        3.743832        8.232218       14.405145
   1867     0     3        0.000000        1.784446        9.538874        7.203196
   1868     0     3        0.000000        6.381848        7.645343        8.579144
   1869     0     3        0.000000        9.078585        1.409538       14.892543
   1870     0     3        0.000000        9.762638        9.168987        1.080411
   1871     0     3        0.000000        8.615238        4.613438       15.067695
   1872     0     3        0.000000        9.059810        3.362426       14.709468
   1873     0     3        0.000000        2.531183        7.106258       11.881018
   1874     0     3        0.000000        1.534399        8.890704       11.143217
   1875     0     3        0.000000        5.841567        0.462154       14.612065
   1876     0     3        0.000000        1.203532        9.540739        0.867327
   1877     0     3        0.000000        0.511372        6.426878        9.953910
   1878     0     3        0.000000        8.308542        6.189516        8.624290
   1879     0     3        0.000000        8.983798        4.804753        0.005790
   1880     0     3        0.000000        8.401108        9.717325       11.141903
   1881     0     3        0.000000        3.833050        8.777136        0.521784
   1882     0     3        0.000000        3.026467        1.308318       11.891796
   1883     0     3        0.000000        0.452103        2.842717       10.116923
   1884     0     3        0.000000        7.416614        8.879113        0.645412
   1885     0     3        0.000000        8.903812        4.720680        1.384858
   1886     0     3        0.000000        8.578432        6.435584       10.933044
   1887     0     3        0.000000        0.189807        3.727924       12.523874
   1888     0     3        0.000000        0.193426        2.129032       12.071595
   1889     0     3        0.000000        7.483230        8.988549       12.208321
   1890     0     3        0.000000        4.915603        9.440652        0.756668
   1891     0     3        0.000000        1.238680        6.857266       14.963249
   1892     0     3        0.000000        1.642062        5.761078        6.516337
   1893     0     3        0.000000        2.913873        2.375864       10.292012
   1894     0     3        0.000000        9.747025        7.175489        1.882613
   1895     0     3        0.000000        2.769693        7.365297        7.847291
   1896     0     3        0.000000        0.597115        7.558722       11.253742
   1897     0     3        0.000000        8.141862        4.715838        4.793072
   1898     0     3        0.000000        4.463744        2.199068        3.174749
   1899     0     3        0.000000        2.093945        7.114671        2.279793
   1900     0     3        0.000000        2.566862        8.353351       13.251418
   1901     0     3        0.000000        1.918893        9.995413        6.469144
   1902     0     3        0.000000        5.991604        2.503011       12.545034
   1903     0     3        0.000000        5.988527        5.416884        0.346415
   1904     0     3        0.000000        3.597667        7.933602        7.611673
   1905     0     3        0.000000        8.502224        8.530717        3.705629
   1906     0     3        0.000000        5.535813        6.672578       11.250969
   1907     0     3        0.000000        8.531482        1.136322       14.769478
   1908     0     3        0.000000        0.515701        3.230267       10.152952
   1909     0     3        0.000000        1.940571        5.797130        7.518314
   1910     0     3        0.000000        0.222708        7.716023        7.510975
   1911     0     3        0.000000        2.106568        9.696153        4.182807
   1912     0     3        0.000000        2.323078        2.117188       12.445061
   1913     0     3        0.000000        9.715077        5.714855        9.138825
   1914     0     3        0.000000        6.788391        9.752891        1.464097
   1915     0     3        0.000000        3.820247        8.284373        3.282213
   1916     0     3        0.000000        3.051171        8.800074        8.450641
   1917     0     3        0.000000        9.396766        0.740645        1.726048
   1918     0     3        0.000000        4.095712        0.963353       14.071685
   1919     0     3        0.000000        8.790071        5.229275        4.003887
   1920     0     3        0.000000        8.601696        9.658921        6.905232
   1921     0     3        0.000000        6.379859        9.373998        0.049000
   1922     0     3        0.000000        2.091625        3.846371        6.796325
   1923     0     3        0.000000        6.334107        0.634762        6.400951
   1924     0     3        0.000000        9.300551        7.506179        1.736067
   1925     0     3        0.000000        5.660981        0.998657        4.462463
   1926     0     3        0.000000        4.455784        9.788729       12.829302
   1927     0     3        0.000000        9.156796        4.377867        8.020925
   1928     0     3        0.000000        3.472567        0.757726        7.019322
   1929     0     3        0.000000        7.750895        9.183458       14.189134
   1930     0     3        0.000000        1.751489        6.432626        5.317148
   1931     0     3        0.000000        5.121499        0.315378       12.371747
   1932     0     3        0.000000        9.736225        0.432144       13.631565
   1933     0     3        0.000000        7.754539        7.390357        6.873437
   1934     0     3        0.000000        8.121774        0.019720       15.090386
   1935     0     3        0.000000        2.508850        3.522912        3.649347
   1936     0     3        0.000000        0.742297        1.273807        2.342881
   1937     0     3        0.000000        9.610506        3.025296       12.635083
   1938     0     3        0.000000        3.763120        2.183252        6.312771
   1939     0     3        0.000000        1.495462        9.130438       15.874946
   1940     0     3        0.000000        0.226461        8.866662        0.566376
   1941     0     3        0.000000        8.746189        6.621201       12.390948
   1942     0     3        0.000000        3.042087        9.729897        6.866394
   1943     0     3        0.000000        1.715852        7.851671        6.897946
   1944     0     3        0.000000        1.147343        0.360520       12.534605
   1945     0     3        0.000000        3.428185        1.102817       14.572696
   1946     0     3        0.000000        4.892486        0.713323        3.413169
   1947     0     3        0.000000        6.419516        7.410166        2.205177
   1948     0     3        0.000000        0.364998        8.905628        0.813877
   1949     0     3        0.000000        0.286840        9.132089       15.000537
   1950     0     3        0.000000        0.640825        7.878278        9.594459
   1951     0     3        0.000000        8.385168        0.920365        9.162294
   1952     0     3        0.000000        2.676664        2.636217        5.724967
   1953     0     3        0.000000        6.987880        3.783560        6.301799
   1954     0     3        0.000000        4.822008        7.211745        8.066307
   1955     0     3        0.000000        3.929943        2.104231        9.207623
   1956     0     3        0.000000        5.258158        1.313160       10.899161
   1957     0     3        0.000000        6.636393        1.678158        9.148165
   1958     0     3        0.000000        7.145066        1.964998        7.759507
   1959     0     3        0.000000        2.516939        0.990991        5.837335
   1960     0     3        0.000000        8.243372        3.667655       10.055282
   1961     0     3        0.000000        1.821476        0.655535        0.108978
   1962     0     3        0.000000        0.801543        9.407486       15.014541
   1963     0     3        0.000000        5.958117        0.728818        8.945426
   1964     0     3        0.000000        8.487696        4.510277       14.774477
   1965     0     3        0.000000        3.337388        1.030679        2.943794
   1966     0     3        0.000000        9.713691        1.790990       10.397628
   1967     0     3        0.000000        6.066354        9.372568        4.210553
   1968     0     3        0.000000        3.346211        0.174110        3.262531
   1969     0     3        0.000000        2.730298        6.730417       12.015588
   1970     0     3        0.000000        7.008030        2.688534       13.181696
   1971     0     3        0.000000        9.867971        3.946323        0.182477
   1972     0     3        0.000000        9.102020        7.283711        1.831564
   1973     0     3        0.000000        0.941891        3.349068        7.507753
   1974     0     3        0.000000        0.271271        9.061002        0.153284
   1975     0     3        0.000000        7.425323        5.127356       15.149392
   1976     0     3        0.000000        0.056919        8.473566       15.427969
   1977     0     3        0.000000        2.096001        1.203865       10.196637
   1978     0     3        0.000000        9.605743        8.211895       14.498292
   1979     0     3        0.000000        7.844303        0.810816        7.232095
   1980     0     3        0.000000        3.448074        0.678788       13.546211
   1981     0     3        0.000000        3.562122        9.780807        9.200148
   1982     0     3        0.000000        4.706850        0.722698       14.558657
   1983     0     3        0.000000        9.399195        4.495452        3.459071
   1984     0     3        0.000000        5.978333        2.192046       10.160444
   1985     0     3        0.000000        5.446704        2.248964        7.718150
   1986     0     3        0.000000        1.462082        3.950709        6.783365
   1987     0     3        0.000000        0.523514        1.795012        8.080671
   1988     0     3        0.000000        3.509956        8.805208        8.816023
   1989     0     3        0.000000        9.260048        3.512058        9.972340
   1990     0     3        0.000000        8.359209        2.911253        1.165063
   1991     0     3        0.000000        0.521128        8.793784        8.791818
   1992     0     3        0.000000        1.744050        4.772117       12.299091
   1993     0     3        0.000000        8.094327        0.218820       15.897434
   1994     0     3        0.000000        2.918171        5.308005        6.849379
   1995     0     3        0.000000        8.945879        6.770087       13.170513
   1996     0     3        0.000000        8.235902        2.337175        8.431469
   1997     0     3        0.000000        3.965109        5.847130        6.519802
   1998     0     3        0.000000        9.475124        5.107179       12.139094
   1999     0     3        0.000000        5.707836        3.466387        0.797098
   2000     0     3        0.000000        1.930887        5.731566        6.502539
   2001     0     3        0.000000        9.617819        3.825893        6.852652
   2002     0     3        0.000000        9.553715        6.744064       15.345459
   2003     0     3        0.000000        2.066148        8.875426        5.847360
   2004     0     3        0.000000        2.092730        7.111328        9.586840
   2005     0     3        0.000000        7.362398        1.076438        2.942248
   2006     0     3        0.000000        1.437274        0.551561       11.113734
   2007     0     3        0.000000        9.024208        6.259398        0.659954
   2008     0     3        0.000000        9.522394        2.695398        7.039979
   2009     0     3        0.000000        8.814364        4.626285        0.210484
   2010     0     3        0.000000        6.752271        7.632397       10.226323
   2011     0     3        0.000000        3.113270        9.698544        8.427004
   2012     0     3        0.000000        6.767870        1.791274        3.805129
   2013     0     3        0.000000        2.759645        9.153673        5.527430
   2014     0     3        0.000000        4.598550        0.590947        6.409928
   2015     0     3        0.000000        1.544634        9.615155        0.424964
   2016     0     3        0.000000        1.957105        9.137549        4.737601
   2017     0     3        0.000000        6.357092        7.951914       12.139657
   2018     0     3        0.000000        6.488644        0.830365        2.930224
   2019     0     3        0.000000        0.446089        7.991724        9.006734
   2020     0     3        0.000000        1.147598        4.743995        5.218569
   2021     0     3        0.000000        7.539050        7.857265        4.736240
   2022     0     3        0.000000        8.638777        1.983330        7.193671
   2023     0     3        0.000000        5.871585        1.842159        1.921059
   2024     0     3        0.000000        3.458871        8.330804        3.249644
   2025     0     3        0.000000        5.290261        8.776893        0.036403
   2026     0     3        0.000000        0.919470        9.924491        7.626795
   2027     0     3        0.000000        4.181075        7.463541        4.198419
   2028     0     3        0.000000        7.141225        0.269468       11.598636
   2029     0     3        0.000000        0.293791        6.737360        0.232352
   2030     0     3        0.000000        4.404990        9.647945        9.008460
   2031     0     3        0.000000        8.854401        8.978401        9.285201
   2032     0     3        0.000000        0.885428        4.268662        7.328229
   2033     0     3        0.000000        0.908180        5.188132        7.207415
   2034     0     3        0.000000        5.674927        9.369207        3.149080
   2035     0     3        0.000000        8.298939        6.510433        3.580229
   2036     0     3        0.000000        5.548086        8.403082       12.305992
   2037     0     3        0.000000        0.182013        4.200829        2.853797
   2038     0     3        0.000000        6.944490        8.899610       13.070286
   2039     0     3        0.000000        2.574777        6.553349        5.901535
   2040     0     3        0.000000        0.047224        5.407749        4.266977
   2041     0     3        0.000000        0.430619        7.201357        3.397847
   2042     0     3        0.000000        6.903428        1.175222       12.805271
   2043     0     3        0.000000        9.141071        6.723308       10.250203
   2044     0     3        0.000000        8.615939        3.704591        8.162923
   2045     0     3        0.000000        7.136923        0.649081        6.402299
   2046     0     3        0.000000        5.305851        3.223858        0.887658
   2047     0     3        0.000000        8.994311        3.271082        9.540057
   2048     0     3        0.000000        1.661171        9.121557        3.609141
   2049     0     3        0.000000        8.596694        9.552176       15.131312
   2050     0     3        0.000000        0.720348        4.487429        3.733366
   2051     0     3        0.000000        2.213210        1.390856        5.613722
   2052     0     3        0.000000        0.216505        0.531927        0.371015
   2053     0     3        0.000000        2.331914        3.117103        2.385404
   2054     0     3        0.000000        6.333352        8.422955        7.543576
   2055     0     3        0.000000        2.850673        9.078436       11.371800
   2056     0     3        0.000000        4.563456        8.395478        1.835168
   2057     0     3        0.000000        6.896810        0.608688        4.060538
   2058     0     3        0.000000        0.405386        0.825193        4.911621
   2059     0     3        0.000000        0.637270        7.448074        0.694408
   2060     0     3        0.000000        7.774476        4.678162       10.262698
   2061     0     3        0.000000        8.616273        7.010077       15.250063
   2062     0     3        0.000000        0.107150        3.343428       12.726791
   2063     0     3        0.000000        4.821885        0.231566        8.594416
   2064     0     3        0.000000        2.807703        3.082238        7.119914
   2065     0     3        0.000000        9.915078        8.188624        3.400122
   2066     0     3        0.000000        6.574629        2.752080        0.832887
   2067     0     3        0.000000        7.721609        9.648890        1.806788
   2068     0     3        0.000000        0.259445        0.054275        3.127097
   2069     0     3        0.000000        3.329208        0.691545       15.044016
   2070     0     3        0.000000        3.763214        8.466021        6.529076
   2071     0     3        0.000000        0.177400        7.082294        1.745199
   2072     0     3        0.000000        9.708689        7.189444        7.094684
   2073     0     3        0.000000        7.662933        2.011329        7.465189
   2074     0     3        0.000000        9.609465        1.308740       13.901897
   2075     0     3        0.000000        0.130020        9.030349       13.340121
   2076     0     3        0.000000        1.259263        9.289794       13.426961
   2077     0     3        0.000000        7.787630        6.268305        2.913848
   2078     0     3        0.000000        2.221808        3.931238        6.131975
   2079     0     3        0.000000        6.887550        6.965682       13.842427
   2080     0     3        0.000000        0.572138        4.059536        7.510987
   2081     0     3        0.000000        9.260823        4.189556        5.959545
   2082     0     3        0.000000        5.990250        8.662517        9.013620
   2083     0     3        0.000000        5.073646        1.278726        3.225166
   2084     0     3        0.000000        2.623063        7.975607       13.720551
   2085     0     3        0.000000        9.075930        7.985044       14.039820
   2086     0     3        0.000000        1.559931        9.508127        0.305024
   2087     0     3        0.000000        4.945558        0.080264        6.800282
   2088     0     3        0.000000        9.639924        9.341088       13.503572
   2089     0     3        0.000000        3.364640        6.939486        6.221682
   2090     0     3        0.000000        2.012662        8.003382        6.127670
   2091     0     3        0.000000        4.028390        0.626445        2.888640
   2092     0     3        0.000000        2.603735        7.881219       12.109819
   2093     0     3        0.000000        6.222272        9.865563        0.682042
   2094     0     3        0.000000        1.962841        1.425494       15.895044
   2095     0     3        0.000000        2.153481        6.371051        0.023467
   2096     0     3        0.000000        4.843390        9.375616       10.072386
   2097     0     3        0.000000        8.731941        5.754765       14.759963
   2098     0     3        0.000000        1.283009        7.767427       11.565374
   2099     0     3        0.000000        0.040521        8.069207        4.093974
   2100     0     3        0.000000        0.466797        0.032048        6.374764
   2101     0     3        0.000000        0.401200        2.185529        0.568446
   2102     0     3        0.000000        0.415867        8.589186       10.186007
   2103     0     3        0.000000        9.771621        3.432576        9.186993
   2104     0     3        0.000000        6.066862        2.164517        2.394617
   2105     0     3        0.000000        2.520198        8.560329        1.695808
   2106     0     3        0.000000        0.375002        5.478531        8.735091
   2107     0     3        0.000000        6.111024        9.965371       11.690188
   2108     0     3        0.000000        8.804195        0.005892        8.600920
   2109     0     3        0.000000        1.362929        0.472689        8.652197
   2110     0     3        0.000000        5.347156        0.873889       12.149044
   2111     0     3        0.000000        5.702435        1.289756        9.891742
   2112     0     3        0.000000        2.068690        1.061377       15.383864
   2113     0     3        0.000000        7.810560        7.128240        2.847092
   2114     0     3        0.000000        9.307196        2.420079        8.363133
   2115     0     3        0.000000        8.571259        4.940277        6.059659
   2116     0     3        0.000000        9.631139        5.315279       14.825309
   2117     0     3        0.000000        5.090571        1.426303       14.769903
   2118     0     3        0.000000        2.396938        0.230498       14.779330
   2119     0     3        0.000000        7.772514        1.593427       15.535633
   2120     0     3        0.000000        3.180137        6.940584        0.933855
   2121     0     3        0.000000        0.773289        2.643019        2.997464
   2122     0     3        0.000000        6.955628        4.711708        4.695668
   2123     0     3        0.000000        8.349976        1.829464        3.972978
   2124     0     3        0.000000        3.576934        0.400723       11.877422
   2125     0     3        0.000000        7.364221        0.031861        4.381869
   2126     0     3        0.000000        5.861228        7.519371        7.032751
   2127     0     3        0.000000        4.808080        8.472021        4.687169
   2128     0     3        0.000000        5.391739        9.245310        8.915998
   2129     0     3        0.000000        0.199947        2.771482        4.490361
   2130     0     3        0.000000        0.262979        1.121458        7.417503
   2131     0     3        0.000000        0.169479        2.062613        8.109638
   2132     0     3        0.000000        2.908147        8.692652        0.305529
   2133     0     3        0.000000        7.073118        4.553880       12.336522
   2134     0     3        0.000000        1.468587        9.652189        4.803537
   2135     0     3        0.000000        7.457484        4.460269        2.358770
   2136     0     3        0.000000        0.386964        9.852008        1.151267
   2137     0     3        0.000000        9.050146        7.580089        1.301473
   2138     0     3        0.000000        3.686086        0.326179        8.818900
   2139     0     3        0.000000        8.722748        0.495658       12.119081
   2140     0     3        0.000000        3.982227        0.476923        1.313531
   2141     0     3        0.000000        1.692553        1.945510        0.757033
   2142     0     3        0.000000        4.694764        9.402994        7.893463
   2143     0     3        0.000000        6.168995        9.789958        7.656675
   2144     0     3        0.000000        6.888537        5.749422        3.044135
   2145     0     3        0.000000        3.809018        1.993092       14.751511
   2146     0     3        0.000000        3.500981        1.043238       10.879653
   2147     0     3        0.000000        9.826214        3.452072       12.194592
   2148     0     3        0.000000        7.400640        7.243343        1.640679
   2149     0     3        0.000000        3.667717        1.225571        2.403756
   2150     0     3        0.000000        4.961819        7.612888        4.561362
   2151     0     3        0.000000        9.895233        3.781883        4.225296
   2152     0     3        0.000000        4.680655        0.670420       13.424370
   2153     0     3        0.000000        6.583240        4.479438        0.613318
   2154     0     3        0.000000        2.602717        2.294820        9.849417
   2155     0     3        0.000000        9.728679        2.121035       15.372732
   2156     0     3        0.000000        7.350298        9.521674       10.962082
   2157     0     3        0.000000        8.375723        3.189391       12.922995
   2158     0     3        0.000000        9.878070        7.678064        1.591993
   2159     0     3        0.000000        3.325928        2.639883       13.772614
   2160     0     3        0.000000        6.176779        2.535116        3.823627
   2161     0     3        0.000000        8.817589        7.215771        4.896300
   2162     0     3        0.000000        7.207820        3.799011       12.063401
   2163     0     3        0.000000        7.591144        9.601945        8.832071
   2164     0     3        0.000000        9.017706        2.204661       12.503784
   2165     0     3        0.000000        5.173592        1.933340       15.897439
   2166     0     3        0.000000        4.781549        9.283638       15.132118
   2167     0     3        0.000000        1.632850        7.659361        4.235143
   2168     0     3        0.000000        9.709722        7.537431        0.520046
   2169     0     3        0.000000        0.704718        0.863359        4.743859
   2170     0     3        0.000000        9.312601        7.040138        8.800044
   2171     0     3        0.000000        1.702368        5.857726        4.345278
   2172     0     3        0.000000        2.302181        0.656690        9.786807
   2173     0     3        0.000000        7.822225        9.674396       13.314265
   2174     0     3        0.000000        5.572990        9.629537       15.261430
   2175     0     3        0.000000        5.030563        1.262387       11.516408
   2176     0     3        0.000000        7.677528        0.972109        7.576298
   2177     0     3        0.000000        8.002556        1.676827        8.957673
   2178     0     3        0.000000        0.967468        0.989428        4.221893
   2179     0     3        0.000000        9.183295        7.454351        2.499130
   2180     0     3        0.000000        5.698104        9.756532        3.549834
   2181     0     3        0.000000        1.814859        7.578758        3.028867
   2182     0     3        0.000000        0.136274        3.215848       10.785647
   2183     0     3        0.000000        0.391030        8.788838       10.192906
   2184     0     3        0.000000        9.929424        3.819401       12.212725
   2185     0     3        0.000000        7.127179        1.496929       13.768100
   2186     0     3        0.000000        1.862365        9.499485        0.451023
   2187     0     3        0.000000        7.460910        0.466953        2.034108
   2188     0     3        0.000000        0.099593        6.934449        6.340982
   2189     0     3        0.000000        8.596003        6.117744        2.267944
   2190     0     3        0.000000        0.157959        1.815848        1.878396
   2191     0     3        0.000000        1.010677        4.158011        1.211905
   2192     0     3        0.000000        5.014197        1.214613        9.718034
   2193     0     3        0.000000        3.901148        0.537888        9.664335
   2194     0     3        0.000000        5.172466        0.637482        4.759454
   2195     0     3        0.000000        9.135579        9.233485       14.547844
   2196     0     3        0.000000        0.553045        9.391444        1.453201
   2197     0     3        0.000000        1.727042        1.768050        7.262332
   2198     0     3        0.000000        0.479797        6.037698       13.289502
   2199     0     3        0.000000        3.205841        4.429618       10.482214
   2200     0     3        0.000000        7.782683        9.443815       12.425595
   2201     0     3        0.000000        3.856454        3.063074        1.348759
   2202     0     3        0.000000        9.429710        6.964222        2.209380
   2203     0     3        0.000000        8.444578        1.272268        2.002926
   2204     0     3        0.000000        7.536981        1.825312        1.029237
   2205     0     3        0.000000        8.445232        3.552354        3.858117
   2206     0     3        0.000000        2.984189        4.032151       13.518433
   2207     0     3        0.000000        1.290127        6.480551        8.795833
   2208     0     3        0.000000        3.754077        9.686392       15.883223
   2209     0     3        0.000000        0.305461        7.469074       14.993327
   2210     0     3        0.000000        8.071457        1.325528        3.894245
   2211     0     3        0.000000        8.914432        0.755238       15.037001
   2212     0     3        0.000000        0.295295        6.225158        2.455702
   2213     0     3        0.000000        4.208741        0.651948       13.095597
   2214     0     3        0.000000        6.620064        3.636137        3.547039
   2215     0     3        0.000000        0.566481        8.680342       13.414147
   2216     0     3        0.000000        0.493495        8.985802        9.364665
   2217     0     3        0.000000        9.864324        7.057260       11.485510
   2218     0     3        0.000000        1.696353        6.266986        6.654143
   2219     0     3        0.000000        3.231166        8.580625       14.125720
   2220     0     3        0.000000        6.038248        2.146093        1.656467
   2221     0     3        0.000000        0.670642        6.354834        2.699585
   2222     0     3        0.000000        8.855390        2.974898        8.517404
   2223     0     3        0.000000        1.072289        8.043983        0.399428
   2224     0     3        0.000000        9.769739        8.610463       14.287975
   2225     0     3        0.000000        8.153581        9.103958       12.665258
   2226     0     3        0.000000        4.006497        8.968282        7.956874
   2227     0     3        0.000000        1.184940        1.266509        1.511580
   2228     0     3        0.000000        9.118622        2.962861       11.538758
   2229     0     3        0.000000        3.277461        6.194028        9.267758
   2230     0     3        0.000000        2.106037        2.232276       12.701507
   2231     0     3        0.000000        4.828569        1.758307       11.629078
   2232     0     3        0.000000        0.151947        2.830597        8.499450
   2233     0     3        0.000000        0.401589        2.600336        6.276192
   2234     0     3        0.000000        9.331574        0.753917        4.842525
   2235     0     3        0.000000        7.247360        4.760413        3.191775
   2236     0     3        0.000000        0.376868        8.341437        3.869211
   2237     0     3        0.000000        6.169217        0.447474        7.440852
   2238     0     3        0.000000        4.107659        3.588802       12.085520
   2239     0     3        0.000000        8.400934        8.417371       14.898812
   2240     0     3        0.000000        5.669108        8.569318        3.427767
   2241     0     3        0.000000        0.981264        8.970908        7.588304
   2242     0     3        0.000000        4.903884        8.302481        8.794571
   2243     0     3        0.000000        9.925322        7.770248        9.923798
   2244     0     3        0.000000        3.186690        0.935392        2.026159
   2245     0     3        0.000000        9.410919        1.312260       15.372458
   2246     0     3        0.000000        1.829177        7.481477        0.088417
   2247     0     3        0.000000        6.479709        1.589136        5.830500
   2248     0     3        0.000000        4.033160        9.990070        3.298295
   2249     0     3        0.000000        5.487272        6.640442       15.362656
   2250     0     3        0.000000        0.229962        1.544326       12.646627
   2251     0     3        0.000000        5.726568        9.474788        5.526373
   2252     0     3        0.000000        5.983588        9.400109        1.958770
   2253     0     3        0.000000        2.185962        2.586799        3.455398
   2254     0     3        0.000000        3.452311        1.997719        5.555015
   2255     0     3        0.000000        3.115358        0.306605        4.067995
   2256     0     3        0.000000        8.820855        7.684681       13.106791
   2257     0     3        0.000000        9.451607        3.171953        7.731498
   2258     0     3        0.000000        9.053268        3.401915       10.202420
   2259     0     3        0.000000        6.957409        9.128483        9.362080
   2260     0     3        0.000000        0.411392        5.112072        8.402255
   2261     0     3        0.000000        1.635624        7.298033       12.541134
   2262     0     3        0.000000        3.795248        0.750344       15.737484
   2263     0     3        0.000000        7.267132        3.810442        5.860516
   2264     0     3        0.000000        8.220493        6.925799        6.351083
   2265     0     3        0.000000        0.762990        3.685220       13.294706
   2266     0     3        0.000000        1.487301        1.957682       14.665321
   2267     0     3        0.000000        6.319488        1.010950        4.108385
   2268     0     3        0.000000        2.696000        7.968359        2.713958
   2269     0     3        0.000000        8.547300        8.379751       10.893272
   2270     0     3        0.000000        3.798710        0.015375        6.570125
   2271     0     3        0.000000        1.636918        3.810623        7.770676
   2272     0     3        0.000000        1.472846        1.077755       13.867383
   2273     0     3        0.000000        5.135668        9.298248        8.948662
   2274     0     3        0.000000        9.105095        0.061238       14.845014
   2275     0     3        0.000000        2.573984        1.163585        7.604545
   2276     0     3        0.000000        3.646244        6.205595        1.786121
   2277     0     3        0.000000        7.752572        7.842513        7.883118
   2278     0     3        0.000000        2.609245        9.315359        9.607527
   2279     0     3        0.000000        1.276359        4.451027        8.484724
   2280     0     3        0.000000        6.869272        3.556123        8.582705
   2281     0     3        0.000000        6.147406        0.970409       13.953578
   2282     0     3        0.000000        7.931615        4.378568        5.704133
   2283     0     3        0.000000        1.673505        6.952552        7.565869
   2284     0     3        0.000000        6.426346        2.094277       13.741205
   2285     0     3        0.000000        9.147545        8.932225        1.592221
   2286     0     3        0.000000        0.248496        2.578469       11.521173
   2287     0     3        0.000000        1.364822        0.331041        8.069195
   2288     0     3        0.000000        6.291771        2.940285        6.973769
   2289     0     3        0.000000        7.599427        1.085916        3.785209
   2290     0     3        0.000000        1.684604        5.164937       12.343573
   2291     0     3        0.000000        5.249688        6.838442        7.467656
   2292     0     3        0.000000        9.978356        3.264788       10.818499
   2293     0     3        0.000000        8.566609        2.412333        9.110060
   2294     0     3        0.000000        9.561747        2.660829       13.235610
   2295     0     3        0.000000        1.805727        0.317421        2.469732
   2296     0     3        0.000000        4.973966        0.213323       10.953829
   2297     0     3        0.000000        7.339722        3.176941        6.527145
   2298     0     3        0.000000        0.675887        4.861546       14.791044
   2299     0     3        0.000000        8.390620        0.111234        9.732551
   2300     0     3        0.000000        3.057905        0.089590       14.956212
   2301     0     3        0.000000        9.819467        8.656199        2.815945
   2302     0     3        0.000000        5.513255        8.217946        7.073271
   2303     0     3        0.000000        9.692618        7.924453        2.545738
   2304     0     3        0.000000        0.618226        5.940063       15.407318
   2305     0     3        0.000000        9.862629        4.330683       15.585292
   2306     0     3        0.000000        7.053072        2.721310       10.727267
   2307     0     3        0.000000        1.473866        6.506821        2.695950
   2308     0     3        0.000000        9.920312        8.895630       13.553797
   2309     0     3        0.000000        8.684178        2.828021        2.274576
   2310     0     3        0.000000        0.061941        2.520639       14.953701
   2311     0     3        0.000000        1.653027        9.059399        7.376383
   2312     0     3        0.000000        6.421055        9.677626        0.880483
   2313     0     3        0.000000        6.050628        9.540254        7.809576
   2314     0     3        0.000000        5.621833        0.778834       15.164205
   2315     0     3        0.000000        0.812971        9.305772       13.929216
   2316     0     3        0.000000        2.497940        9.226084       12.162223
   2317     0     3        0.000000        0.969062        7.910262        0.687057
   2318     0     3        0.000000        2.390672        7.972203        4.720079
   2319     0     3        0.000000        1.736736        9.625231        3.215118
   2320     0     3        0.000000        6.346975        6.046286        2.699319
   2321     0     3        0.000000        6.897277        2.096914        1.963726
   2322     0     3        0.000000        1.778262        7.888350       10.740890
   2323     0     3        0.000000        4.047835        3.510183       11.987024
   2324     0     3        0.000000        3.525463        7.618611        8.518073
   2325     0     3        0.000000        5.724401        8.431582        7.407309
   2326     0     3        0.000000        4.430161        0.929522        6.169043
   2327     0     3        0.000000        2.031550        1.898584        2.825463
   2328     0     3        0.000000        5.411010        6.025993       14.981357
   2329     0     3        0.000000        7.420459        2.372967        8.655414
   2330     0     3        0.000000        9.107533        9.270244       12.010477
   2331     0     3        0.000000        0.334862        1.048506        8.631837
   2332     0     3        0.000000        7.047918        5.096341       14.248130
   2333     0     3        0.000000        4.539808        8.621804       10.437908
   2334     0     3        0.000000        9.863604        4.346205        7.928440
   2335     0     3        0.000000        4.493172        8.776366        9.415674
   2336     0     3        0.000000        8.348824        0.807916       12.453409
   2337     0     3        0.000000        0.114738        3.268877        3.316220
   2338     0     3        0.000000        9.852856        8.679887       12.957808
   2339     0     3        0.000000        9.216204        6.100346        0.754556
   2340     0     3        0.000000        7.527285        2.590659        9.418702
   2341     0     3        0.000000        6.432366        7.130467        7.213587
   2342     0     3        0.000000        7.911333        1.487244       12.209700
   2343     0     3        0.000000        3.796130        9.836068       13.502366
   2344     0     3        0.000000        1.579510        9.950806        2.732569
   2345     0     3        0.000000        3.652148        9.803663        0.620389
   2346     0     3        0.000000        1.750778        9.019867       10.380942
   2347     0     3        0.000000        2.222375        3.645705        2.713548
   2348     0     3        0.000000        1.964217        5.778092       11.581933
   2349     0     3        0.000000        2.754565        3.305377       15.726986
   2350     0     3        0.000000        8.641253        9.737743       11.135734
   2351     0     3        0.000000        3.149745        2.693801        6.326248
   2352     0     3        0.000000        2.004442        0.605134        8.705837
   2353     0     3        0.000000        9.635504        4.401264        8.443546
   2354     0     3        0.000000        9.782339        9.632923        8.050697
   2355     0     3        0.000000        0.170082        1.383700        6.482484
   2356     0     3        0.000000        8.354138        5.570293        5.560559
   2357     0     3        0.000000        5.592846        8.324857       10.849162
   2358     0     3        0.000000        5.422212        6.966111       10.429551
   2359     0     3        0.000000        2.382046        0.115856       14.739633
   2360     0     3        0.000000        6.335951        2.120298       15.707848
   2361     0     3        0.000000        1.777099        1.755802        6.749871
   2362     0     3        0.000000        7.054316        9.830286        0.319110
   2363     0     3        0.000000        2.282338        9.612624       15.731786
   2364     0     3        0.000000        7.314024        9.782706        1.945707
   2365     0     3        0.000000        1.365576        6.440876        7.715428
   2366     0     3        0.000000        9.062833        4.795014        0.627896
   2367     0     3        0.000000        2.538183        0.387860       13.947668
   2368     0     3        0.000000        9.318909        5.810073        9.093445
   2369     0     3        0.000000        5.837379        8.192119        9.278815
   2370     0     3        0.000000        9.085724        3.359484       15.209032
   2371     0     3        0.000000        9.285168        5.641822       14.589231
   2372     0     3        0.000000        9.117534        2.955846       14.241561
   2373     0     3        0.000000        0.333601        4.321422        8.546963
   2374     0     3        0.000000        5.155743        3.384255        0.218985
   2375     0     3        0.000000        5.548178        5.922438        0.839562
   2376     0     3        0.000000        4.265471        5.241348       10.135678
   2377     0     3        0.000000        9.948874        1.078727        7.243068
   2378     0     3        0.000000        5.748133        6.128376       14.487979
   2379     0     3        0.000000        3.667691        0.995431        8.576248
   2380     0     3        0.000000        3.343050        0.081154       13.951423
   2381     0     3        0.000000        2.848696        9.366322        6.978338
   2382     0     3        0.000000        1.966965        8.483856       11.707692
   2383     0     3        0.000000        0.867940        8.817457        2.621967
   2384     0     3        0.000000        6.346658        9.521378        1.512677
   2385     0     3        0.000000        3.206183        3.735723       11.624796
   2386     0     3        0.000000        7.733100        9.483856        5.430198
   2387     0     3        0.000000        0.867881        9.343293        6.138849
   2388     0     3        0.000000        5.229342        1.310258        3.713019
   2389     0     3        0.000000        2.546650        2.178198        1.820949
   2390     0     3        0.000000        4.185379        8.387990        8.178069
   2391     0     3        0.000000        9.208364        4.734648        7.412274
   2392     0     3        0.000000        0.153787        1.606032       13.471233
   2393     0     3        0.000000        6.340558        4.812215        3.448390
   2394     0     3        0.000000        6.999930        9.333401        7.665035
   2395     0     3        0.000000        1.389234        1.481643        2.056391
   2396     0     3        0.000000        5.859693        2.349524        1.005659
   2397     0     3        0.000000        9.696474        7.578866        3.102072
   2398     0     3        0.000000        2.017110        0.125516        6.587189
   2399     0     3        0.000000        3.155204        4.310895        4.007974
   2400     0     3        0.000000        8.266497        3.519259       11.583411
   2401     0     3        0.000000        1.318689        0.013604        5.852605
   2402     0     3        0.000000        3.473932        3.619660        9.925109
   2403     0     3        0.000000        5.113032        0.619590        8.858550
   2404     0     3        0.000000        9.903679        2.008824       11.229179
   2405     0     3        0.000000        1.188923        7.868517       14.988417
   2406     0     3        0.000000        1.817461        7.564991       11.114602
   2407     0     3        0.000000        3.756256        9.582101       11.315427
   2408     0     3        0.000000        7.873249        2.737305        2.212858
   2409     0     3        0.000000        0.378232        1.003802        7.843672
   2410     0     3        0.000000        0.121406        8.695591        3.533768
   2411     0     3        0.000000        6.324599        3.808623        4.525113
   2412     0     3        0.000000        1.861193        3.712302        7.739232
   2413     0     3        0.000000        8.879430        4.901226        4.328860
   2414     0     3        0.000000        8.247190        6.718686        0.432845
   2415     0     3        0.000000        5.193816        0.474942       15.764208
   2416     0     3        0.000000        2.265958        8.348191        4.143896
   2417     0     3        0.000000        3.648994        8.726423        5.749979
   2418     0     3        0.000000        8.551289        6.344287       11.994730
   2419     0     3        0.000000        7.924181        9.253820        8.356126
   2420     0     3        0.000000        0.752376        1.115013       14.295809
   2421     0     3        0.000000        5.589396        9.994443        6.137770
   2422     0     3        0.000000        8.294933        8.241633        0.887668
   2423     0     3        0.000000        8.565462        3.435450        1.647575
   2424     0     3        0.000000        8.418091        5.701408       15.004680
   2425     0     3        0.000000        1.008026        9.350402       12.966957
   2426     0     3        0.000000        4.816834        0.743897        0.297073
   2427     0     3        0.000000        6.230790        8.668078       15.103186
   2428     0     3        0.000000        1.453369        9.420454        0.887207
   2429     0     3        0.000000        0.388250        5.009850        0.878315
   2430     0     3        0.000000        4.779148        1.870244        3.561648
   2431     0     3        0.000000        5.808883        0.288336       12.683900
   2432     0     3        0.000000        5.186807        1.296362       11.644543
   2433     0     3        0.000000        7.739790        7.996594        0.332564
   2434     0     3        0.000000        5.181911        9.044218       15.391723
   2435     0     3        0.000000        4.621402        0.497587       14.464449
   2436     0     3        0.000000        5.175906        0.885837        6.480209
   2437     0     3        0.000000        4.515433        9.889341       14.760252
   2438     0     3        0.000000        4.668901        0.885031        1.295768
   2439     0     3        0.000000        1.946740        4.176186       10.732767
   2440     0     3        0.000000        7.126271        1.915976        7.527317
   2441     0     3        0.000000        8.285872        2.094127       10.499552
   2442     0     3        0.000000        7.905699        6.715529       11.295691
   2443     0     3        0.000000        6.945980        1.891434       12.713030
   2444     0     3        0.000000        0.996111        7.616287        4.889338
   2445     0     3        0.000000        8.351024        2.131721        4.712284
   2446     0     3        0.000000        7.576182        8.873184       13.829442
   2447     0     3        0.000000        4.607510        2.615095        8.992952
   2448     0     3        0.000000        9.312083        9.949218        4.052498
   2449     0     3        0.000000        6.830085        8.235091        7.403101
   2450     0     3        0.000000        3.392304        6.140790        2.147947
   2451     0     3        0.000000        0.452111        3.086770        5.174242
   2452     0     3        0.000000        8.397755        4.082881        1.360302
   2453     0     3        0.000000        1.453591        2.433905        4.771055
   2454     0     3        0.000000        4.398769        0.010087        2.968150
   2455     0     3        0.000000        2.570602        4.999292        1.417605
   2456     0     3        0.000000        6.275221        9.606801        5.601758
   2457     0     3        0.000000        1.895816        8.918884        5.520507
   2458     0     3        0.000000        4.428627        5.748968        2.696652
   2459     0     3        0.000000        9.055565        9.141273       12.521915
   2460     0     3        0.000000        0.398032        9.593384        1.460748
   2461     0     3        0.000000        3.631934        7.991139        7.993357
   2462     0     3        0.000000        4.482122        9.444731       11.887605
   2463     0     3        0.000000        7.464032        3.843499       11.903744
   2464     0     3        0.000000        9.319126        6.885669        7.263363
   2465     0     3        0.000000        4.716304        9.456272       15.262229
   2466     0     3        0.000000        5.602307        5.731492       14.633111
   2467     0     3        0.000000        9.103406        7.627308       12.903325
   2468     0     3        0.000000        2.553722        2.055935        6.101675
   2469     0     3        0.000000        4.239130        1.111500        4.727711
   2470     0     3        0.000000        2.065327        1.509532        4.077126
   2471     0     3        0.000000        7.974142        9.623588       15.974517
   2472     0     3        0.000000        7.383338        1.123050        0.271222
   2473     0     3        0.000000        6.067925        5.828763        5.645303
   2474     0     3        0.000000        4.132503        8.382485        8.934799
   2475     0     3        0.000000        7.946050        2.621615       10.713200
   2476     0     3        0.000000        0.900870        4.686942       13.128451
   2477     0     3        0.000000        3.972490        1.043275        0.092731
   2478     0     3        0.000000        8.513305        1.270348       12.140405
   2479     0     3        0.000000        8.682819        8.192579        6.900976
   2480     0     3        0.000000        8.112139        8.393008       13.638974
   2481     0     3        0.000000        0.392138        7.239928        9.332665
   2482     0     3        0.000000        8.597421        0.689001        5.597043
   2483     0     3        0.000000        1.944169        4.677417       14.620049
   2484     0     3        0.000000        4.914505        8.649907        0.289288
   2485     0     3        0.000000        4.972462        6.449970        6.508505
   2486     0     3        0.000000        1.437165        4.963275        8.541062
   2487     0     3        0.000000        9.024918        3.646093        5.649189
   2488     0     3        0.000000        3.338028        8.229918       12.465995
   2489     0     3        0.000000        2.004260        0.038447        4.037300
   2490     0     3        0.000000        3.150234        0.430585       15.621184
   2491     0     3        0.000000        8.983150        9.028006        0.723586
   2492     0     3        0.000000        2.481302        0.972175        8.207454
   2493     0     3        0.000000        1.618833        5.886680        6.047305
   2494     0     3        0.000000        1.799638        0.859142        0.367257
   2495     0     3        0.000000        5.867454        2.296307        8.308496
   2496     0     3        0.000000        1.205618        1.321225       14.142246
   2497     0     3        0.000000        2.527607        8.139155        5.457408
   2498     0     3        0.000000        8.711862        0.143416        5.518922
   2499     0     3        0.000000        1.235175        3.293650        6.207858
   2500     0     3        0.000000        0.998415        2.276800        4.652668
   2501     0     3        0.000000        1.450656        4.758102        6.208147
   2502     0     3        0.000000        6.580314        6.376935       15.626835
   2503     0     3        0.000000        0.359880        8.176573        1.001462
   2504     0     3        0.000000        0.589415        4.044026        4.675554
   2505     0     3        0.000000        4.621129        9.986004       14.244321
   2506     0     3        0.000000        1.689951        2.513612       11.266969
   2507     0     3        0.000000        5.100831        1.225474       11.496434
   2508     0     3        0.000000        8.550157        2.460648        0.766274
   2509     0     3        0.000000        2.430069        3.459063        4.409154
   2510     0     3        0.000000        9.218078        1.490033        6.225213
   2511     0     3        0.000000        8.984850        1.849913        3.307729
   2512     0     3        0.000000        9.610764        2.439328        9.778171
   2513     0     3        0.000000        2.532985        8.221554        2.177601
   2514     0     3        0.000000        2.720988        9.633464        8.137744
   2515     0     3        0.000000        9.906259        8.183621       12.074782
   2516     0     3        0.000000        0.385181        0.613690        1.609283
   2517     0     3        0.000000        0.654725        5.169754       11.848886
   2518     0     3        0.000000        2.724170        6.298352       15.866158
   2519     0     3        0.000000        5.432175        8.753915       11.666663
   2520     0     3        0.000000        9.292792        1.474903       11.080206
   2521     0     3        0.000000        4.378882        1.381162        8.174000
   2522     0     3        0.000000        1.925621        1.766342        9.155903
   2523     0     3        0.000000        8.846943        5.561969       10.950190
   2524     0     3        0.000000        6.252497        0.107452        1.597555
   2525     0     3        0.000000        5.507964        6.720265        7.622142
   2526     0     3        0.000000        7.202759        9.444435        1.699504
   2527     0     3        0.000000        7.119107        3.529606        6.619157
   2528     0     3        0.000000        9.878138        8.961781        4.625421
   2529     0     3        0.000000        7.169803        8.254573        6.985265
   2530     0     3        0.000000        4.094932        2.633455        9.195124
   2531     0     3        0.000000        9.203681        4.559075       12.021272
   2532     0     3        0.000000        4.442577        8.097901        7.696360
   2533     0     3        0.000000        9.206415        5.300660        6.807457
   2534     0     3        0.000000        0.268606        2.419767       12.454827
   2535     0     3        0.000000        7.296467        9.467708        8.000993
   2536     0     3        0.000000        1.662258        3.562639       12.214521
   2537     0     3        0.000000        7.409210        2.766321        3.509042
   2538     0     3        0.000000        4.922505        7.692442       15.493838
   2539     0     3        0.000000        3.415511        2.179359       10.734285
   2540     0     3        0.000000        8.225737        1.385775        3.215341
   2541     0     3        0.000000        2.480397        1.654380        7.086968
   2542     0     3        0.000000        0.264664        6.059959       10.763616
   2543     0     3        0.000000        9.645408        2.427894        4.038285
   2544     0     3        0.000000        1.838560        7.350399        0.346191
   2545     0     3        0.000000        1.522209        4.693443        7.214476
   2546     0     3        0.000000        7.543298        0.018994        3.593328
   2547     0     3        0.000000        6.154326        3.434506        7.080303
   2548     0     3        0.000000        2.863254        1.660242        9.297542
   2549     0     3        0.000000        4.872842        4.140640       11.944550
   2550     0     3        0.000000        9.302197        4.405303        5.640485
   2551     0     3        0.000000        6.029457        1.416015       11.010766
   2552     0     3        0.000000        1.982032        3.072756        6.925291
   2553     0     3        0.000000        4.722329        6.433524       10.195438
   2554     0     3        0.000000        9.231377        3.976823       10.225829
   2555     0     3        0.000000        1.477206        0.131148       15.721038
   2556     0     3        0.000000        1.713359        7.867244        9.002449
   2557     0     3        0.000000        9.178703        7.169441        0.050935
   2558     0     3        0.000000        2.704006        3.198898        2.316559
   2559     0     3        0.000000        9.585735        5.423322        7.800315
   2560     0     3        0.000000        1.486148        7.405354       12.716725
   2561     0     3        0.000000        5.814454        1.911313        4.574830
   2562     0     3        0.000000        0.256452        7.342226        5.441222
   2563     0     3        0.000000        0.082100        3.244621       10.232265
   2564     0     3        0.000000        1.567992        4.957980        6.819856
   2565     0     3        0.000000        7.226357        6.840690        7.409198
   2566     0     3        0.000000        8.674206        6.426425        0.086514
   2567     0     3        0.000000        1.497356        3.727027       14.993181
   2568     0     3        0.000000        4.356625        1.220187        9.607010
   2569     0     3        0.000000        6.919033        5.341947       14.738601
   2570     0     3        0.000000        0.319797        5.424048        3.929995
   2571     0     3        0.000000        6.714963        6.992040       11.862764
   2572     0     3        0.000000        0.977373        4.186562        2.481458
   2573     0     3        0.000000        2.409224        1.412919       13.426561
   2574     0     3        0.000000        7.039973        0.087125        7.708841
   2575     0     3        0.000000        3.924208        9.490509       12.284499
   2576     0     3        0.000000        9.928589        3.139927        4.421292
   2577     0     3        0.000000        1.797989        0.058961       12.968408
   2578     0     3        0.000000        1.009615        0.378758        5.646885
   2579     0     3        0.000000        3.465862        7.093720        0.834148
   2580     0     3        0.000000        0.880090        8.071094        7.532647
   2581     0     3        0.000000        2.431001        0.480318        9.793317
   2582     0     3        0.000000        0.822602        7.520291        9.932717
   2583     0     3        0.000000        8.371225        9.167805        7.965377
   2584     0     3        0.000000        2.506662        3.020601       12.174076
   2585     0     3        0.000000        3.375224        5.828205       12.874425
   2586     0     3        0.000000        6.904527        9.294067        8.224377
   2587     0     3        0.000000        7.425869        0.174157        5.138127
   2588     0     3        0.000000        2.133774        2.605157        5.906636
   2589     0     3        0.000000        8.254597        3.427759        1.939101
   2590     0     3        0.000000        4.462545        9.068386        9.322038
   2591     0     3        0.000000        9.285381        2.268461       12.937746
   2592     0     3        0.000000        1.363048        0.045092        9.480453
   2593     0     3        0.000000        9.030806        3.420316        2.805581
   2594     0     3        0.000000        7.077322        0.324843        1.676088
   2595     0     3        0.000000        2.217558        7.750712        1.954739
   2596     0     3        0.000000        5.428887        9.884486        6.122991
   2597     0     3        0.000000        9.120534        8.139082       11.607405
   2598     0     3        0.000000        0.332473        2.601627       10.116823
   2599     0     3        0.000000        1.152826        6.194029        9.649739
   2600     0     3        0.000000        9.238917        9.948281        1.289936
   2601     0     3        0.000000        0.345610        1.311329        1.362083
   2602     0     3        0.000000        6.270893        0.342135        6.834588
   2603     0     3        0.000000        8.024381        7.419457        7.354336
   2604     0     3        0.000000        9.071936        9.637015        3.755475
   2605     0     3        0.000000        0.293648        5.065902        3.570652
   2606     0     3        0.000000        4.120517        4.186436        0.593184
   2607     0     3        0.000000        1.375145        4.518908        4.755787
   2608     0     3        0.000000        7.698159        0.677655       15.809624
   2609     0     3        0.000000        1.460785        1.830481        9.720071
   2610     0     3        0.000000        7.491872        1.069398        9.637320
   2611     0     3        0.000000        8.298082        1.415007       11.735446
   2612     0     3        0.000000        9.149384        7.685900       12.282863
   2613     0     3        0.000000        3.421001        5.710281        8.153994
   2614     0     3        0.000000        0.364633        5.075865       15.678660
   2615     0     3        0.000000        2.596291        9.196382        6.376957
   2616     0     3        0.000000        2.967031        0.571527       13.607210
   2617     0     3        0.000000        5.939398        8.269687       14.691458
   2618     0     3        0.000000        5.820413        9.730472        1.620227
   2619     0     3        0.000000        1.895457        7.222344        3.331263
   2620     0     3        0.000000        7.918782        5.520426        5.595275
   2621     0     3        0.000000        2.930225        8.090810       11.029165
   2622     0     3        0.000000        8.026471        6.108271        2.680713
   2623     0     3        0.000000        2.558894        9.069196        9.516309
   2624     0     3        0.000000        6.544492        2.036227       10.430753
   2625     0     3        0.000000        5.048999        7.975625        7.662252
   2626     0     3        0.000000        7.325842        3.610277       11.619437
   2627     0     3        0.000000        0.822889        8.863713        3.091132
   2628     0     3        0.000000        2.005836        1.793938        0.036428
   2629     0     3        0.000000        8.899065        9.820409        9.809663
   2630     0     3        0.000000        0.574510        2.580140        4.166310
   2631     0     3        0.000000        3.273515        1.683527        5.934986
   2632     0     3        0.000000        9.792735        6.732526        2.695986
   2633     0     3        0.000000        4.581643        0.963686        8.769647
   2634     0     3        0.000000        9.101022        6.207488        1.876039
   2635     0     3        0.000000        0.842744        3.533330        7.652482
   2636     0     3        0.000000        8.104893        4.356219        5.834422
   2637     0     3        0.000000        0.036850        6.362055        8.704722
   2638     0     3        0.000000        0.059618        5.261120        8.417376
   2639     0     3        0.000000        8.794601        3.161452        4.768056
   2640     0     3        0.000000        0.467740        6.434967        7.461699
   2641     0     3        0.000000        4.177107        6.227702        2.233740
   2642     0     3        0.000000        5.862098        0.809345        3.775637
   2643     0     3        0.000000        1.343127        9.910366       13.707619
   2644     0     3        0.000000        2.515651        0.753111        3.360947
   2645     0     3        0.000000        7.298453        8.858004       10.330898
   2646     0     3        0.000000        0.944967        8.894854        4.510187
   2647     0     3        0.000000        6.385418        8.954472       12.927979
   2648     0     3        0.000000        1.646278        5.145129        6.264988
   2649     0     3        0.000000        9.487278        3.939730       11.323311
   2650     0     3        0.000000        7.130875        8.584577       15.583581
   2651     0     3        0.000000        8.526963        4.446675        0.878532
   2652     0     3        0.000000        0.886736        5.789803        0.735119
   2653     0     3        0.000000        9.453998        8.305454        1.940096
   2654     0     3        0.000000        1.554590        5.603907        0.112901
   2655     0     3        0.000000        8.011401        6.548873       14.344668
   2656     0     3        0.000000        0.830268        2.934291       12.671823
   2657     0     3        0.000000        8.910255        4.580569        4.904030
   2658     0     3        0.000000        9.902942        6.535161        2.259551
   2659     0     3        0.000000        3.414978        3.666036       15.994875
   2660     0     3        0.000000        3.154716        2.192999        7.109556
   2661     0     3        0.000000        5.375808        4.088323        6.628217
   2662     0     3        0.000000        2.331678        1.840248       13.130191
   2663     0     3        0.000000        3.813665        7.984040        3.960664
   2664     0     3        0.000000        3.810462        1.138756        7.469462
   2665     0     3        0.000000        8.253935        4.842554       12.397039
   2666     0     3        0.000000        8.487210        9.005802        0.451012
   2667     0     3        0.000000        1.168575        9.827981       10.351888
   2668     0     3        0.000000        1.860084        4.239769       15.039876
   2669     0     3        0.000000        3.692254        1.968144        9.450065
   2670     0     3        0.000000        5.966472        4.369589        0.760564
   2671     0     3        0.000000        4.775850        8.183255       13.535027
   2672     0     3        0.000000        7.251265        1.993717       15.357036
   2673     0     3        0.000000        1.919679        0.247652        7.105123
   2674     0     3        0.000000        9.667828        8.734862        5.514406
   2675     0     3        0.000000        9.949711        5.760801       12.524982
   2676     0     3        0.000000        4.319916        6.929376       12.249751
   2677     0     3        0.000000        0.789846        8.789460        3.033382
   2678     0     3        0.000000        0.189769        4.275345       13.547697
   2679     0     3        0.000000        1.429939        7.967599        0.696727
   2680     0     3        0.000000        7.811582        8.709921        4.781278
   2681     0     3        0.000000        0.309824        7.548693        6.343246
   2682     0     3        0.000000        1.584441        1.818321       10.647528
   2683     0     3        0.000000        9.240535        2.608167        8.710665
   2684     0     3        0.000000        1.136399        2.797936       15.551216
   2685     0     3        0.000000        9.603710        4.227875       12.299375
   2686     0     3        0.000000        0.039165        1.564105        2.593889
   2687     0     3        0.000000        4.844209        9.375687        0.529762
   2688     0     3        0.000000        2.814523        1.515784        6.677044
   2689     0     3        0.000000        8.044189        1.825607        2.754954
   2690     0     3        0.000000        1.734047        7.166376        1.661713
   2691     0     3        0.000000        8.388752        6.406912        5.834780
   2692     0     3        0.000000        3.832918        7.543311       10.311478
   2693     0     3        0.000000        3.552428        7.147021        1.076079
   2694     0     3        0.000000        1.239538        7.186185        3.578647
   2695     0     3        0.000000        2.860718        2.030394        2.579747
   2696     0     3        0.000000        3.191819        9.862901       11.614406
   2697     0     3        0.000000        9.484107        2.677424       14.039660
   2698     0     3        0.000000        3.657259        0.721613        0.960632
   2699     0     3        0.000000        5.379105        2.730331        9.891728
   2700     0     3        0.000000        9.284664        6.686048       11.678285
   2701     0     3        0.000000        5.729338        0.238476        7.113519
   2702     0     3        0.000000        6.401887        1.478014        2.611415
   2703     0     3        0.000000        8.638541        4.338732        5.860046
   2704     0     3        0.000000        0.250883        7.530551        5.640688
   2705     0     3        0.000000        7.509887        7.014658        9.924566
   2706     0     3        0.000000        6.284674        0.671917       11.079147
   2707     0     3        0.000000        6.885069        6.051023       15.447677
   2708     0     3        0.000000        3.067399        0.650379        6.590682
   2709     0     3        0.000000        6.171722        5.572969        5.853368
   2710     0     3        0.000000        3.470651        1.302307        6.234930
   2711     0     3        0.000000        7.916600        7.704194        8.599752
   2712     0     3        0.000000        9.548734        6.342735       15.541723
   2713     0     3        0.000000        2.939547        0.388180        7.889126
   2714     0     3        0.000000        9.864013        7.273249        1.570762
   2715     0     3        0.000000        9.518811        0.340647        2.611368
   2716     0     3        0.000000        0.610295        2.928474        5.589407
   2717     0     3        0.000000        3.540326        3.864460       14.148185
   2718     0     3        0.000000        0.498032        3.812416       15.263584
   2719     0     3        0.000000        4.756818        6.751962       15.884671
   2720     0     3        0.000000        9.687522        6.615976       11.521869
   2721     0     3        0.000000        0.669248        6.134787       12.066904
   2722     0     3        0.000000        2.301353        9.772775        6.877708
   2723     0     3        0.000000        0.221763        0.383070       11.563267
   2724     0     3        0.000000        8.510828        2.817200       12.707028
   2725     0     3        0.000000        1.010709        6.357526        2.890163
   2726     0     3        0.000000        9.853324        9.611430       14.211319
   2727     0     3        0.000000        5.289558        0.109461        4.311185
   2728     0     3        0.000000        9.500201        7.524402        3.151985
   2729     0     3        0.000000        3.798768        7.746165        3.764896
   2730     0     3        0.000000        1.025810        1.461307       11.207647
   2731     0     3        0.000000        4.651977        9.972136       15.715167
   2732     0     3        0.000000        2.593869        0.982844        9.887210
   2733     0     3        0.000000        4.400221        0.836168        9.265497
   2734     0     3        0.000000        3.282295        6.125727        9.440636
   2735     0     3        0.000000        5.976786        0.955025        1.226683
   2736     0     3        0.000000        1.485667        7.670628        0.869642
   2737     0     3        0.000000        3.682882        7.170828       12.908686
   2738     0     3        0.000000        5.652873        0.969596        9.302550
   2739     0     3        0.000000        8.005933        1.995406       11.640641
   2740     0     3        0.000000        5.010713        6.647382       11.596058
   2741     0     3        0.000000        4.832692        9.241251       13.168609
   2742     0     3        0.000000        1.012198        3.641472       14.506478
   2743     0     3        0.000000        6.803134        6.923767        8.307641
   2744     0     3        0.000000        2.703532        2.900553        9.835681
   2745     0     3        0.000000        3.470208        8.323792        2.975269
   2746     0     3        0.000000        8.790686        9.809458       15.248273
   2747     0     3        0.000000        9.334212        3.492341       10.721599
   2748     0     3        0.000000        7.402141        9.145214       12.272952
   2749     0     3        0.000000        0.491635        2.161860       10.101413
   2750     0     3        0.000000        7.739172        6.994552        8.887415
   2751     0     3        0.000000        5.969552        8.006751       14.713770
   2752     0     3        0.000000        0.228377        7.513416       14.432683
   2753     0     3        0.000000        6.375678        0.983624       11.750749
   2754     0     3        0.000000        8.235221        9.774310       11.445883
   2755     0     3        0.000000        7.765392        9.108523        1.033628
   2756     0     3        0.000000        2.136986        9.726898       11.107806
   2757     0     3        0.000000        1.802987        0.218533       14.566782
   2758     0     3        0.000000        8.116371        7.957705        9.758065
   2759     0     3        0.000000        2.867112        8.963359       14.264682
   2760     0     3        0.000000        8.986985        9.191736       10.286148
   2761     0     3        0.000000        8.007412        5.567414       11.859947
   2762     0     3        0.000000        2.505307        1.568027       10.072480
   2763     0     3        0.000000        2.942556        8.171405        4.052578
   2764     0     3        0.000000        9.884935        9.974392        4.402232
   2765     0     3        0.000000        8.989173        8.090763        1.134560
   2766     0     3        0.000000        5.087964        1.761768        7.418173
   2767     0     3        0.000000        9.193506        4.628879        5.759548
   2768     0     3        0.000000        8.108932        3.615865        4.466326
   2769     0     3        0.000000        4.537774        1.623277       13.374189
   2770     0     3        0.000000        1.950241        6.974908        3.458405
   2771     0     3        0.000000        9.137018        9.480215        5.967248
   2772     0     3        0.000000        5.432318        2.631540       15.622317
   2773     0     3        0.000000        8.238281        5.574097       12.696565
   2774     0     3        0.000000        0.771143        5.459032       12.655592
   2775     0     3        0.000000        4.231638        9.536169       12.419640
   2776     0     3        0.000000        8.867996        8.729675        3.825847
   2777     0     3        0.000000        2.467713        6.838607        9.611231
   2778     0     3        0.000000        5.259167        1.376381       12.208474
   2779     0     3        0.000000        9.509068        7.895959       10.747136
   2780     0     3        0.000000        9.273016        6.134240        3.665690
   2781     0     3        0.000000        7.208369        6.905383       12.400141
   2782     0     3        0.000000        5.118114        0.427921        3.517269
   2783     0     3        0.000000        1.118621        4.659558        2.775140
   2784     0     3        0.000000        8.880896        3.527554        0.742620
   2785     0     3        0.000000        1.272051        5.995267       11.684391
   2786     0     3        0.000000        7.279070        1.254434       13.886601
   2787     0     3        0.000000        9.514570        0.652007        7.151022
   2788     0     3        0.000000        3.599989        0.161075        3.784556
   2789     0     3        0.000000        0.316949        9.434091       13.599340
   2790     0     3        0.000000        0.358093        1.760575        9.332626
   2791     0     3        0.000000        2.556386        2.879196        0.787919
   2792     0     3        0.000000        4.290849        1.760092        6.432006
   2793     0     3        0.000000        2.057731        0.311212        2.031529
   2794     0     3        0.000000        0.736856        5.220578        9.827479
   2795     0     3        0.000000        2.742604        4.735148       10.870690
   2796     0     3        0.000000        7.211993        8.335137       11.128410
   2797     0     3        0.000000        9.577340        8.652086       10.222956
   2798     0     3        0.000000        8.076928        1.260092        4.850893
   2799     0     3        0.000000        3.481899        1.618185        7.667813
   2800     0     3        0.000000        9.314790        4.174571       12.274526
   2801     0     3        0.000000        9.807239        8.465420       15.090673
   2802     0     3        0.000000        5.112220        6.014994       12.792967
   2803     0     3        0.000000        1.254395        8.757599        4.369203
   2804     0     3        0.000000        8.048576        5.969592        1.705423
   2805     0     3        0.000000        1.393180        3.623860        1.564908
   2806     0     3        0.000000        4.424989        7.105759        4.154004
   2807     0     3        0.000000        9.217371        6.420548       10.833318
   2808     0     3        0.000000        6.320621        0.055031       13.530642
   2809     0     3        0.000000        8.784435        3.897545        5.975662
   2810     0     3        0.000000        1.559460        9.009765       15.599653
   2811     0     3        0.000000        9.555065        0.264160       13.611810
   2812     0     3        0.000000        2.285817        8.312736        7.163157
   2813     0     3        0.000000        3.351706        3.316569        0.038248
   2814     0     3        0.000000        4.047750        9.134738        1.205638
   2815     0     3        0.000000        6.644002        8.352109       11.478515
   2816     0     3        0.000000        8.651070        1.561680        5.531024
   2817     0     3        0.000000        7.107721        0.346115       11.767096
   2818     0     3        0.000000        0.842510        1.905575       10.182720
   2819     0     3        0.000000        0.592293        1.460640       10.605376
   2820     0     3        0.000000        9.099674        3.746457        7.905754
   2821     0     3        0.000000        3.600553        0.167845        4.747862
   2822     0     3        0.000000        7.248318        4.215595        3.363443
   2823     0     3        0.000000        8.001842        0.859597        0.726817
   2824     0     3        0.000000        8.577773        2.925492       11.611201
   2825     0     3        0.000000        2.034663        0.033214       12.164985
   2826     0     3        0.000000        9.389098        0.875723       15.213906
   2827     0     3        0.000000        5.753298        1.468016        1.550930
   2828     0     3        0.000000        2.381658        0.567690        7.545261
   2829     0     3        0.000000        5.580419        7.744890        3.170873
   2830     0     3        0.000000        8.547833        4.993208        9.915825
   2831     0     3        0.000000        0.649985        2.995050       11.291179
   2832     0     3        0.000000        1.104246        8.170963        2.130255
   2833     0     3        0.000000        4.056567        8.783399        6.864185
   2834     0     3        0.000000        1.659682        8.172497        8.265342
   2835     0     3        0.000000        1.168373        3.925795       10.614168
   2836     0     3        0.000000        2.137705        6.307453       11.522472
   2837     0     3        0.000000        8.667443        9.210626       14.545237
   2838     0     3        0.000000        0.649239        7.758459        6.534370
   2839     0     3        0.000000        6.846630        8.408443       11.326449
   2840     0     3        0.000000        3.903617        9.512689        8.399991
   2841     0     3        0.000000        9.491928        0.368821        1.251406
   2842     0     3        0.000000        3.782043        2.028503       14.327401
   2843     0     3        0.000000        8.947882        3.196877        4.608672
   2844     0     3        0.000000        2.783282        2.188074        4.508927
   2845     0     3        0.000000        4.129165        0.855518        3.245928
   2846     0     3        0.000000        3.219938        1.504757       15.659462
   2847     0     3        0.000000        7.303919        8.351387       13.112971
   2848     0     3        0.000000        9.632944        7.490029        6.432880
   2849     0     3        0.000000        1.631674        6.981957        7.022994
   2850     0     3        0.000000        2.413803        0.764001       10.268600
   2851     0     3        0.000000        1.368429        9.711883       15.383603
   2852     0     3        0.000000        4.248849        5.293620        7.918933
   2853     0     3        0.000000        3.436722        8.076902       11.419852
   2854     0     3        0.000000        8.283507        5.426005       15.196291
   2855     0     3        0.000000        8.070670        2.729924       12.558510
   2856     0     3        0.000000        3.974572        6.745819       12.150561
   2857     0     3        0.000000        7.995123        8.377493        7.321693
   2858     0     3        0.000000        2.384494        0.791296        8.544094
   2859     0     3        0.000000        8.802369        2.159725        8.083106
   2860     0     3        0.000000        8.417120        6.408575        0.552898
   2861     0     3        0.000000        3.366454        9.845297       13.475941
   2862     0     3        0.000000        0.503861        6.100099        1.005648
   2863     0     3        0.000000        8.496786        4.383605        9.687255
   2864     0     3        0.000000        7.994468        2.454275       14.055134
   2865     0     3        0.000000        5.843537        8.720552        9.435733
   2866     0     3        0.000000        5.947609        2.695125        4.229043
   2867     0     3        0.000000        3.541709        0.690247        1.633032
   2868     0     3        0.000000        8.117768        3.074741        2.899106
   2869     0     3        0.000000        3.457826        1.877110        6.354667
   2870     0     3        0.000000        8.509767        0.294230        0.608387
   2871     0     3        0.000000        8.855329        3.660684        0.360862
   2872     0     3        0.000000        7.906321        2.661331        1.134788
   2873     0     3        0.000000        3.960856        0.655799        5.061628
   2874     0     3        0.000000        8.642648        2.446945        7.326712
   2875     0     3        0.000000        1.285800        5.988654        8.431107
   2876     0     3        0.000000        2.306445        4.106422       13.350693
   2877     0     3        0.000000        4.118386        7.564248        0.354069
   2878     0     3        0.000000        8.470295        4.929344        6.681930
   2879     0     3        0.000000        8.695834        2.207136       13.345202
   2880     0     3        0.000000        5.021471        0.113457        1.603332
   2881     0     3        0.000000        8.894231        6.819628       13.051549
   2882     0     3        0.000000        0.778301        5.462276        0.966660
   2883     0     3        0.000000        0.626938        9.054520        1.118782
   2884     0     3        0.000000        8.971121        3.172907       13.221579
   2885     0     3        0.000000        9.192414        1.262960        6.940003
   2886     0     3        0.000000        9.707937        9.733255       14.826954
   2887     0     3        0.000000        3.884143        8.429089        2.358371
   2888     0     3        0.000000        2.224895        3.450560        2.539902
   2889     0     3        0.000000        3.226977        9.181273        9.058802
   2890     0     3        0.000000        4.884859        8.075503        3.970207
   2891     0     3        0.000000        3.042077        8.853804       12.709847
   2892     0     3        0.000000        0.239057        4.838237        5.994001
   2893     0     3        0.000000        0.938295        3.809357       11.070652
   2894     0     3        0.000000        9.201782        3.001771       13.091388
   2895     0     3        0.000000        4.280112        8.818746       15.672034
   2896     0     3        0.000000        1.529302        6.930582       11.282875
   2897     0     3        0.000000        4.010681        9.972659        9.448961
   2898     0     3        0.000000        1.954336        3.618898        0.187039
   2899     0     3        0.000000        0.392317        4.796250       14.023189
   2900     0     3        0.000000        3.408964        0.343448        1.711719
   2901     0     3        0.000000        9.753426        4.623560       15.821713
   2902     0     3        0.000000        9.548447        0.491111        3.094870
   2903     0     3        0.000000        8.524741        2.020413       14.183801
   2904     0     3        0.000000        1.482138        7.985431        3.930293
   2905     0     3        0.000000        1.599037        4.631497       10.103020
   2906     0     3        0.000000        7.084932        7.828879        4.233581
   2907     0     3        0.000000        1.560904        1.237844        4.783097
   2908     0     3        0.000000        2.630729        0.991270       12.180793
   2909     0     3        0.000000        2.519299        0.539717       12.966570
   2910     0     3        0.000000        4.453593        9.064458        0.199232
   2911     0     3        0.000000        0.926824        4.276344        6.074170
   2912     0     3        0.000000        2.037462        9.595011        9.810631
   2913     0     3        0.000000        9.792121        8.240847        8.317388
   2914     0     3        0.000000        2.781557        0.871575        9.903420
   2915     0     3        0.000000        0.394553        3.390875       10.766967
   2916     0     3        0.000000        8.498659        7.844468        9.270099
   2917     0     3        0.000000        8.623179        1.162937        0.695691
   2918     0     3        0.000000        8.919839        7.931378        6.848177
   2919     0     3        0.000000        7.692382        8.858202       13.690327
   2920     0     3        0.000000        1.488738        0.895664       13.042344
   2921     0     3        0.000000        7.620383        8.041798        7.730252
   2922     0     3        0.000000        1.580906        7.833919        4.915607
   2923     0     3        0.000000        6.779274        0.615476        6.310127
   2924     0     3        0.000000        2.968911        1.010028       11.735527
   2925     0     3        0.000000        9.698266        9.508687        8.286676
   2926     0     3        0.000000        5.492077        8.131866       10.147376
   2927     0     3        0.000000        2.484824        1.830499       12.147886
   2928     0     3        0.000000        6.764935        9.522881       10.321009
   2929     0     3        0.000000        5.321390        1.011619       11.754072
   2930     0     3        0.000000        3.472855        8.632001        8.620949
   2931     0     3        0.000000        8.304262        0.212908        5.155219
   2932     0     3        0.000000        1.376516        6.992182        6.139980
   2933     0     3        0.000000        5.320346        9.961093        7.756025
   2934     0     3        0.000000        2.655050        9.659359        6.969925
   2935     0     3        0.000000        4.176333        1.078321        8.637967
   2936     0     3        0.000000        1.429813        0.328080       10.803374
   2937     0     3        0.000000        7.880444        5.649470       12.421964
   2938     0     3        0.000000        5.226740        9.122325       10.233166
   2939     0     3        0.000000        0.614832        7.426587       10.573819
   2940     0     3        0.000000        3.836844        8.803103        5.761310
   2941     0     3        0.000000        7.674332        4.123449        5.699059
   2942     0     3        0.000000        2.521848        6.778499        5.154033
   2943     0     3        0.000000        9.366121        8.789055       15.121645
   2944     0     3        0.000000        1.994078        4.056253        5.347605
   2945     0     3        0.000000        8.746187        1.936697       14.386757
   2946     0     3        0.000000        2.905644        7.778269        8.865015
   2947     0     3        0.000000        9.514281        1.615114        6.949980
   2948     0     3        0.000000        3.115100        9.289446       13.547499
   2949     0     3        0.000000        6.677011        1.811294        8.393098
   2950     0     3        0.000000        9.898282        8.689345       15.773453
   2951     0     3        0.000000        8.270990        8.055466       13.835942
   2952     0     3        0.000000        7.722017        2.820316        2.038246
   2953     0     3        0.000000        0.736190        4.814394        8.528251
   2954     0     3        0.000000        3.070166        0.070497        7.088466
   2955     0     3        0.000000        1.184214        2.976141        3.533697
   2956     0     3        0.000000        1.068586        5.605521        4.980992
   2957     0     3        0.000000        9.535772        2.282533        7.879062
   2958     0     3        0.000000        4.781458        2.180815        5.782014
   2959     0     3        0.000000        4.639867        0.451805        2.670759
   2960     0     3        0.000000        3.287330        8.173822        7.183264
   2961     0     3        0.000000        4.561234        8.910012       14.886295
   2962     0     3        0.000000        9.891391        2.988456        4.583225
   2963     0     3        0.000000        1.588536        7.242836        9.457845
   2964     0     3        0.000000        3.797097        3.967684       13.442520
   2965     0     3        0.000000        0.733891        4.572042       10.063406
   2966     0     3        0.000000        5.658305        9.353501       13.552710
   2967     0     3        0.000000        9.272064        3.993368       14.275598
   2968     0     3        0.000000        0.941288        7.280698       11.353713
   2969     0     3        0.000000        5.430828        1.841932        9.609733
   2970     0     3        0.000000        4.734762        1.733323       14.391262
   2971     0     3        0.000000        7.599278        8.891568        8.085057
   2972     0     3        0.000000        0.534290        0.480104        3.673595
   2973     0     3        0.000000        4.847019        1.897972        2.079922
   2974     0     3        0.000000        8.854115        2.631863        9.395190
   2975     0     3        0.000000        3.614188        7.562232       14.750179
   2976     0     3        0.000000        2.536436        8.503520       10.399296
   2977     0     3        0.000000        9.632507        3.934348       13.346387
   2978     0     3        0.000000        5.638590        8.669110        0.119704
   2979     0     3        0.000000        9.686289        6.802678       15.114380
   2980     0     3        0.000000        1.982286        3.248122        5.957901
   2981     0     3        0.000000        8.245968        8.095141        8.994656
   2982     0     3        0.000000        9.545919        6.949256       13.205638
   2983     0     3        0.000000        0.643407        5.707187        6.569479
   2984     0     3        0.000000        9.862269        8.243624        4.175112
   2985     0     3        0.000000        6.361829        7.876131       10.470069
   2986     0     3        0.000000        3.191007        9.816425        2.451348
   2987     0     3        0.000000        6.914695        8.062393       15.403573
   2988     0     3        0.000000        2.536355        7.608312       10.522382
   2989     0     3        0.000000        0.789879        3.026224       13.871181
   2990     0     3        0.000000        1.439495        3.531900        4.192479
   2991     0     3        0.000000        4.048940        9.893729        0.794288
   2992     0     3        0.000000        0.592733        4.597051        6.417842
   2993     0     3        0.000000        5.805637        9.375187        3.454401
   2994     0     3        0.000000        1.976200        3.885213        3.481798
   2995     0     3        0.000000        6.352876        5.324709        9.132838
   2996     0     3        0.000000        8.973175        9.373649        8.962805
   2997     0     3        0.000000        9.469605        9.966382        0.318086
   2998     0     3        0.000000        3.480756        5.772019       15.318385
   2999     0     3        0.000000        5.639757        3.058947        4.309915
   3000     0     3        0.000000        5.632896        8.629846       14.407056
   3001     0     3        0.000000        8.794686        5.769773        7.269158
   3002     0     3        0.000000        7.301178        7.745973       13.485499
   3003     0     3        0.000000        9.477302        4.098849        6.005032
   3004     0     3        0.000000        0.787079        2.541630        4.949082
   3005     0     3        0.000000        0.985883        6.022386       14.184312
   3006     0     3        0.000000        0.559873        1.662143        3.078627
   3007     0     3        0.000000        3.253570        7.295039        0.886380
   3008     0     3        0.000000        2.257980        2.737499       10.058919
   3009     0     3        0.000000        7.022603        2.147781        3.625009
   3010     0     3        0.000000        5.451040        1.625083       10.183168
   3011     0     3        0.000000        9.204185        6.810409       15.098407
   3012     0     3        0.000000        2.330979        7.597488        3.165014
   3013     0     3        0.000000        5.424155        8.583371       12.800832
   3014     0     3        0.000000        4.289350        9.143244       15.460261
   3015     0     3        0.000000        3.054304        9.142592        9.195388
   3016     0     3        0.000000        1.804188        1.621971        0.949952
   3017     0     3        0.000000        6.323846        8.644574        4.386401
   3018     0     3        0.000000        8.589477        4.095614        6.986534
   3019     0     3        0.000000        6.368595        1.054934       11.772562
   3020     0     3        0.000000        4.031778        1.557775       14.236654
   3021     0     3        0.000000        0.989479        8.325255        5.684323
   3022     0     3        0.000000        0.684680        1.379558        4.312470
   3023     0     3        0.000000        6.431798        3.183747        6.907624
   3024     0     3        0.000000        7.025517        9.507593        4.738943
   3025     0     3        0.000000        9.767018        8.097069       11.291926
   3026     0     3        0.000000        4.133602        3.051026        0.571605
   3027     0     3        0.000000        1.442927        8.179197        3.819599
   3028     0     3        0.000000        7.944022        2.210974        6.312039
   3029     0     3        0.000000        6.841930        3.200454        3.632447
   3030     0     3        0.000000        0.394632        3.885134        5.839740
   3031     0     3        0.000000        3.089926        0.316932       10.933735
   3032     0     3        0.000000        7.407191        7.342449       10.145883
   3033     0     3        0.000000        0.369030        7.109467        7.101194
   3034     0     3        0.000000        7.426483        1.243069       11.982836
   3035     0     3        0.000000        7.783736        6.553664        7.889215
   3036     0     3        0.000000        3.771768        0.638739       13.985346
   3037     0     3        0.000000        0.814734        2.081666       11.072061
   3038     0     3        0.000000        3.201983        0.025688       14.609619
   3039     0     3        0.000000        9.417287        7.262251        9.946559
   3040     0     3        0.000000        3.067124        0.352177       10.453650
   3041     0     3        0.000000        9.900709        7.759368        6.201568
   3042     0     3        0.000000        0.680132        5.554881        3.565626
   3043     0     3        0.000000        8.169404        3.338618       14.051488
   3044     0     3        0.000000        1.841005        7.925119        2.404137
   3045     0     3        0.000000        8.761043        1.127102        2.445238
   3046     0     3        0.000000        7.892055        8.274110       13.433428
   3047     0     3        0.000000        0.223521        7.691396        9.053029
   3048     0     3        0.000000        6.440120        0.758521        9.616512
   3049     0     3        0.000000        2.973652        0.659230        6.031500
   3050     0     3        0.000000        6.849632        6.901115        3.036936
   3051     0     3        0.000000        7.835079        7.581247       11.924746
   3052     0     3        0.000000        0.063595        5.750652        1.266534
   3053     0     3        0.000000        8.845776        8.850816       12.643151
   3054     0     3        0.000000        8.266695        0.691821        9.323342
   3055     0     3        0.000000        9.769281        9.452864       11.126706
   3056     0     3        0.000000        1.297555        7.344919        8.365281
   3057     0     3        0.000000        9.693447        7.568440        4.671516
   3058     0     3        0.000000        1.361910        6.982212        6.939917
   3059     0     3        0.000000        7.029683        1.666922       14.111697
   3060     0     3        0.000000        4.482649        1.730517        7.312740
   3061     0     3        0.000000        5.274233        0.576293        5.474046
   3062     0     3        0.000000        3.176203        8.842988        6.580959
   3063     0     3        0.000000        9.003292        8.612269        5.705541
   3064     0     3        0.000000        5.957483        9.909824        1.457412
   3065     0     3        0.000000        1.185784        9.603271       13.566915
   3066     0     3        0.000000        7.783699        6.316771       15.152150
   3067     0     3        0.000000        2.121147        1.448369        5.283099
   3068     0     3        0.000000        3.359710        8.478052        7.950174
   3069     0     3        0.000000        2.179521        2.960701       10.719002
   3070     0     3        0.000000        6.749984        8.234934       11.641071
   3071     0     3        0.000000        0.171263        1.411137        9.789852
   3072     0     3        0.000000        4.284362        0.414429        7.569482
   3073     0     3        0.000000        7.850325        6.371912        7.425201
   3074     0     3        0.000000        8.761208        7.557695        6.790434
   3075     0     3        0.000000        7.240530        1.663176       14.718212
   3076     0     3        0.000000        9.728412        9.446875        8.825046
   3077     0     3        0.000000        9.198506        1.568022       11.142437
   3078     0     3        0.000000        7.469302        7.107254       13.444442
   3079     0     3        0.000000        4.168678        3.857238       10.620337
   3080     0     3        0.000000        1.444347        4.028500       12.878156
   3081     0     3        0.000000        7.563005        8.312862       13.541243
   3082     0     3        0.000000        2.293931        6.163188        7.736301
   3083     0     3        0.000000        1.178703        2.164925        6.489695
   3084     0     3        0.000000        0.377586        1.893337        5.604696
   3085     0     3        0.000000        5.893240        1.091842        8.113531
   3086     0     3        0.000000        2.857263        3.592285       15.997903
   3087     0     3        0.000000        8.299338        1.061586       11.369509
   3088     0     3        0.000000        3.339825        6.674612        7.986689
   3089     0     3        0.000000        1.388672        4.237616        5.287269
   3090     0     3        0.000000        9.851949        6.531548       15.148369
   3091     0     3        0.000000        1.136080        5.022518       13.520620
   3092     0     3        0.000000        4.639015        0.915758       15.267567
   3093     0     3        0.000000        9.709972        3.773021        5.015223
   3094     0     3        0.000000        9.708661        2.072358        6.713761
   3095     0     3        0.000000        6.814604        8.774472       15.082184
   3096     0     3        0.000000        7.777785        2.114297        9.761562
   3097     0     3        0.000000        2.769465        3.502969        0.541748
   3098     0     3        0.000000        5.541739        8.042055        0.538191
   3099     0     3        0.000000        9.933864        5.122076        7.970083
   3100     0     3        0.000000        6.490915        6.258156        0.006111
   3101     0     3        0.000000        4.941302        0.897171        1.471324
   3102     0     3        0.000000        4.483531        0.607142        7.508157
   3103     0     3        0.000000        7.618046        0.315803       10.823931
   3104     0     3        0.000000        1.814146        7.130407        8.863087
   3105     0     3        0.000000        1.240511        4.908192       12.245962
   3106     0     3        0.000000        7.341487        7.677657        1.850713
   3107     0     3        0.000000        4.550220        9.293404        4.085871
   3108     0     3        0.000000        4.886589        9.227268       12.281192
   3109     0     3        0.000000        9.867891        5.718183        6.294242
   3110     0     3        0.000000        9.871711        0.659484        7.729715
   3111     0     3        0.000000        0.791288        5.143016        8.701142
   3112     0     3        0.000000        7.788272        5.815719       12.468186
   3113     0     3        0.000000        6.598694        0.837286       14.755102
   3114     0     3        0.000000        1.110308        5.387506       13.624548
   3115     0     3        0.000000        3.663977        0.274095       12.388177
   3116     0     3        0.000000        1.339722        0.141986        5.537270
   3117     0     3        0.000000        5.273624        0.013697        6.592445
   3118     0     3        0.000000        0.104695        0.804985       14.821270
   3119     0     3        0.000000        5.542909        6.288871        3.238969
   3120     0     3        0.000000        1.296927        8.537714       10.559301
   3121     0     3        0.000000        1.973967        1.767984        8.915981
   3122     0     3        0.000000        7.444241        8.366678       10.255638
   3123     0     3        0.000000        6.666179        9.476985        2.875648
   3124     0     3        0.000000        6.384927        9.754308        3.563293
   3125     0     3        0.000000        0.505205        9.859004        4.851268
   3126     0     3        0.000000        9.768499        5.401913       14.913462
   3127     0     3        0.000000        1.792854        6.698840       12.573804
   3128     0     3        0.000000        8.392417        0.880191        6.695381
   3129     0     3        0.000000        0.807699        2.854158        9.524155
   3130     0     3        0.000000        6.380187        0.298399        6.910840
   3131     0     3        0.000000        4.587241        2.146100       11.099556
   3132     0     3        0.000000        8.871977        1.455160        1.875545
   3133     0     3        0.000000        1.099035        1.960365        1.649951
   3134     0     3        0.000000        4.131078        1.728863       10.293012
   3135     0     3        0.000000        3.451991        3.521717        5.011156
   3136     0     3        0.000000        1.310619        1.914134        6.419461
   3137     0     3        0.000000        1.447829        9.102020       11.463552
   3138     0     3        0.000000        5.767104        1.891981        6.606876
   3139     0     3        0.000000        9.563364        6.479221       10.040637
   3140     0     3        0.000000        7.918493        2.009815        4.481266
   3141     0     3        0.000000        9.090709        3.108850        7.617849
   3142     0     3        0.000000        0.121928        7.239928       10.384030
   3143     0     3        0.000000        6.555061        0.691919        0.018777
   3144     0     3        0.000000        9.687034        2.002538        3.081391
   3145     0     3        0.000000        0.565518        8.945598        5.999556
   3146     0     3        0.000000        7.730238        4.712702        9.026725
   3147     0     3        0.000000        1.859536        4.276066        3.393479
   3148     0     3        0.000000        8.134934        0.776652        8.414018
   3149     0     3        0.000000        9.480565        8.695145       11.629721
   3150     0     3        0.000000        2.281356        7.785854        0.603881
   3151     0     3        0.000000        7.042511        7.907783       12.187765
   3152     0     3        0.000000        3.532530        4.462844       13.294836
   3153     0     3        0.000000        3.544265        4.149877        0.498897
   3154     0     3        0.000000        0.117838        8.414592       10.808286
   3155     0     3        0.000000        3.867560        6.144830        2.348609
   3156     0     3        0.000000        9.509263        8.004366        9.190314
   3157     0     3        0.000000        1.630187        6.139300       10.432957
   3158     0     3        0.000000        4.157524        7.901220        4.802556
   3159     0     3        0.000000        2.152303        8.476261        8.595558
   3160     0     3        0.000000        0.461576        2.020527       15.235361
   3161     0     3        0.000000        0.773386        7.490662       11.793880
   3162     0     3        0.000000        8.582966        7.608499        9.257227
   3163     0     3        0.000000        5.338145        1.476059        3.088955
   3164     0     3        0.000000        6.806026        0.985322       15.895941
   3165     0     3        0.000000        2.549972        2.615509        9.718820
   3166     0     3        0.000000        9.070570        9.504458        2.710603
   3167     0     3        0.000000        7.287911        8.196932        7.262526
   3168     0     3        0.000000        8.197291        0.349235        4.824544
   3169     0     3        0.000000        3.569515        0.810810        8.057387
   3170     0     3        0.000000        3.091615        1.584197        4.042446
   3171     0     3        0.000000        0.462790        0.167163        0.216045
   3172     0     3        0.000000        8.179154        2.311334        4.154256
   3173     0     3        0.000000        8.114117        4.861306        8.339070
   3174     0     3        0.000000        5.882506        8.218189       13.405373
   3175     0     3        0.000000        0.016932        3.703391       11.079239
   3176     0     3        0.000000        3.032272        7.272906       12.376536
   3177     0     3        0.000000        8.068138        0.364521       14.911251
   3178     0     3        0.000000        0.594667        0.827311       15.178712
   3179     0     3        0.000000        0.729695        7.075869        7.987205
   3180     0     3        0.000000        0.149111        7.557519        9.754430
   3181     0     3        0.000000        3.243845        8.917878       15.713293
   3182     0     3        0.000000        9.819135        8.934810        5.638719
   3183     0     3        0.000000        6.743660        1.967081        1.275369
   3184     0     3        0.000000        4.478994        0.035220        1.858603
   3185     0     3        0.000000        3.798526        0.629886        3.182301
   3186     0     3        0.000000        3.285221        1.359581       14.503691
   3187     0     3        0.000000        8.277224        3.700363        6.911727
   3188     0     3        0.000000        5.580561        8.637554       12.302350
   3189     0     3        0.000000        7.745203        8.786665        8.394380
   3190     0     3        0.000000        3.841722        3.652152       13.898420
   3191     0     3        0.000000        8.156430        6.895998       12.167025
   3192     0     3        0.000000        7.977239        6.715133       10.462721
   3193     0     3        0.000000        1.501438        3.458792       13.610051
   3194     0     3        0.000000        2.298544        7.937787       13.666402
   3195     0     3        0.000000        3.460170        1.736313       14.674220
   3196     0     3        0.000000        8.833744        8.879318        4.590217
   3197     0     3        0.000000        6.522713        6.624522        2.648881
   3198     0     3        0.000000        1.769201        0.466244        8.492324
   3199     0     3        0.000000        0.455713        8.622674        3.525920
   3200     0     3        0.000000        8.060104        6.599913       14.270133
   3201     0     3        0.000000        4.599304        8.101351        3.804200
   3202     0     3        0.000000        3.105586        0.399895        0.504658
   3203     0     3        0.000000        1.647088        3.860065        3.282759
   3204     0     3        0.000000        0.818475        9.309174       11.317213
   3205     0     3        0.000000        1.349444        3.823089        0.595224
   3206     0     3        0.000000        8.449660        9.179546        9.401368
   3207     0     3        0.000000        0.105211        0.948747       10.147358
   3208     0     3        0.000000        5.412914        1.404460        7.943636
   3209     0     3        0.000000        7.616614        9.464564        2.503497
   3210     0     3        0.000000        8.913072        7.169454        0.105490
   3211     0     3        0.000000        9.228483        8.816542        6.281595
   3212     0     3        0.000000        1.280207        9.635017        5.176273
   3213     0     3        0.000000        8.353465        0.984460       11.293215
   3214     0     3        0.000000        8.725480        6.565235       15.544148
   3215     0     3        0.000000        7.976814        5.014895       14.231423
   3216     0     3        0.000000        0.194768        0.533020        1.996555
   3217     0     3        0.000000        5.159540        8.149634        1.139857
   3218     0     3        0.000000        6.390262        3.598152        3.113172
   3219     0     3        0.000000        6.456194        2.826635        1.219639
   3220     0     3        0.000000        0.382190        4.106843        0.635666
   3221     0     3        0.000000        0.675620        1.185788       12.715179
   3222     0     3        0.000000        0.390713        9.162602        4.739012
   3223     0     3        0.000000        9.285352        3.015271       12.931182
   3224     0     3        0.000000        9.128738        3.210039       13.784014
   3225     0     3        0.000000        0.376585        8.369579       10.823428
   3226     0     3        0.000000        1.088995        5.093805        2.319556
   3227     0     3        0.000000        5.865274        1.484067        8.076599
   3228     0     3        0.000000        7.811007        7.940261       12.599216
   3229     0     3        0.000000        8.573281        8.322451        3.170164
   3230     0     3        0.000000        8.970572        1.939812        7.106656
   3231     0     3        0.000000        0.352324        2.615432        9.003917
   3232     0     3        0.000000        8.299311        3.006145        7.664081
   3233     0     3        0.000000        1.261193        2.291497       12.488515
   3234     0     3        0.000000        9.343182        1.420235        1.624577
   3235     0     3        0.000000        7.958191        1.796820       15.015904
   3236     0     3        0.000000        6.172555        8.751089        9.540499
   3237     0     3        0.000000        1.220430        6.562095        6.244917
   3238     0     3        0.000000        9.094940        5.135377        3.560839
   3239     0     3        0.000000        1.076292        4.105949        6.664538
   3240     0     3        0.000000        1.145401        2.757584       15.659061
   3241     0     3        0.000000        4.756134        1.320150        8.472742
   3242     0     3        0.000000        4.141073        6.042983       13.090046
   3243     0     3        0.000000        8.619818        2.215539       11.091788
   3244     0     3        0.000000        8.485703        2.530909       13.807743
   3245     0     3        0.000000        0.711228        3.607201        4.377262
   3246     0     3        0.000000        4.876564        9.125153       11.510499
   3247     0     3        0.000000        1.657332        0.270554       15.922634
   3248     0     3        0.000000        1.444246        6.206006        6.352678
   3249     0     3        0.000000        3.522655        9.946779       11.731813
   3250     0     3        0.000000        2.316764        8.843986        7.512827
   3251     0     3        0.000000        0.498043        7.463804       11.057689
   3252     0     3        0.000000        7.430410        2.046434        0.555239
   3253     0     3        0.000000        0.924873        0.532137        4.604693
   3254     0     3        0.000000        9.554713        1.243365       10.376215
   3255     0     3        0.000000        9.484563        7.777261        9.409347
   3256     0     3        0.000000        9.436209        9.221506        3.338956
   3257     0     3        0.000000        0.739016        9.765461       10.778462
   3258     0     3        0.000000        9.391550        2.082225        8.928839
   3259     0     3        0.000000        4.087067        2.580268        4.870925
   3260     0     3        0.000000        0.998123        0.010678        8.145219
   3261     0     3        0.000000        1.345147        0.935551        8.996639
   3262     0     3        0.000000        4.223081        0.490264       10.986022
   3263     0     3        0.000000        0.708215        2.780765        4.777908
   3264     0     3        0.000000        6.318503        2.265329        1.221525
   3265     0     3        0.000000        2.199345        1.701538       15.975936
   3266     0     3        0.000000        8.636883        9.325803       11.451321
   3267     0     3        0.000000        1.681211        0.323926       11.468406
   3268     0     3        0.000000        6.771973        1.669073       12.965288
   3269     0     3        0.000000        9.261136        6.600369        2.198935
   3270     0     3        0.000000        2.247328        2.918872        5.823461
   3271     0     3        0.000000        3.010782        5.118217        8.545921
   3272     0     3        0.000000        2.995742        9.404410        0.718993
   3273     0     3        0.000000        8.219446        8.780588        2.456470
   3274     0     3        0.000000        2.796254        7.417470        1.377755
   3275     0     3        0.000000        9.953330        9.098681        1.896037
   3276     0     3        0.000000        5.224389        8.265526       13.994000
   3277     0     3        0.000000        5.192292        9.773990       13.224786
   3278     0     3        0.000000        8.831955        2.784772        5.413934
   3279     0     3        0.000000        4.622526        1.505377       13.619757
   3280     0     3        0.000000        0.919084        9.724823       11.668697
   3281     0     3        0.000000        2.454377        2.521077        7.536649
   3282     0     3        0.000000        4.500497        9.595490       15.487585
   3283     0     3        0.000000        7.354593        4.819879       12.712427
   3284     0     3        0.000000        6.100843        8.637837        8.755086
   3285     0     3        0.000000        1.447463        3.830129        8.393470
   3286     0     3        0.000000        9.712954        2.662084       12.849106
   3287     0     3        0.000000        5.884781        1.457766        8.506530
   3288     0     3        0.000000        1.690064        4.831227       12.099969
   3289     0     3        0.000000        6.400470        8.146701        0.059019
   3290     0     3        0.000000        0.209557        2.647198       15.411803
   3291     0     3        0.000000        9.889297        0.001791        7.123609
   3292     0     3        0.000000        3.306492        7.550097       11.072354
   3293     0     3        0.000000        8.552411        7.263051       15.331688
   3294     0     3        0.000000        6.583103        0.359713       10.268071
   3295     0     3        0.000000        0.394307        6.244494       12.600497
   3296     0     3        0.000000        5.710889        0.641623        0.403456
   3297     0     3        0.000000        0.752293        2.331687        8.133419
   3298     0     3        0.000000        8.314773        8.732157        5.168141
   3299     0     3        0.000000        8.351660        8.941714        9.403658
   3300     0     3        0.000000        7.984037        8.831011        9.406523
   3301     0     3        0.000000        5.526385        9.972067       15.250893
   3302     0     3        0.000000        2.446606        8.524479       10.871774
   3303     0     3        0.000000        8.446455        5.501889        5.438506
   3304     0     3        0.000000        6.321765        1.212777        6.465103
   3305     0     3        0.000000        6.573925        1.965070       10.195802
   3306     0     3        0.000000        1.657312        0.279843        8.167254
   3307     0     3        0.000000        4.887400        8.631503        6.473997
   3308     0     3        0.000000        0.764687        6.615539        4.603615
   3309     0     3        0.000000        6.643764        9.051832       15.268535
   3310     0     3        0.000000        8.625475        4.578216       15.223843
   3311     0     3        0.000000        8.157283        7.024822       12.863009
   3312     0     3        0.000000        4.952142        9.053732        5.035139
   3313     0     3        0.000000        2.106714        7.500187       13.838161
   3314     0     3        0.000000        9.546469        0.395877        2.922717
   3315     0     3        0.000000        1.023380        6.940590        1.180870
   3316     0     3        0.000000        7.489721        2.974515        1.573810
   3317     0     3        0.000000        7.004623        1.131798       12.813524
   3318     0     3        0.000000        5.044004        6.083941       11.299496
   3319     0     3        0.000000        8.190966        8.190655        7.299795
   3320     0     3        0.000000        8.528143        9.161751        1.333424
   3321     0     3        0.000000        0.634684        0.185130       12.438367
   3322     0     3        0.000000        1.372727        5.254758        8.766809
   3323     0     3        0.000000        8.726310        3.201645       15.725273
   3324     0     3        0.000000        5.131725        0.691366        4.484497
   3325     0     3        0.000000        1.185994        0.930958       13.134727
   3326     0     3        0.000000        5.748365        7.770775        3.049023
   3327     0     3        0.000000        2.912889        3.000362        6.896471
   3328     0     3        0.000000        1.520259        5.007772       15.600293
   3329     0     3        0.000000        6.999514        3.734083        4.722925
   3330     0     3        0.000000        6.827810        8.865808        5.829111
   3331     0     3        0.000000        9.630620        4.981164        2.142694
   3332     0     3        0.000000        3.565229        9.104973        6.526682
   3333     0     3        0.000000        3.583778        0.290966        8.016215
   3334     0     3        0.000000        1.792982        6.039332        4.449454
   3335     0     3        0.000000        3.698622        0.172021       11.605005
   3336     0     3        0.000000        8.847166        3.084910        0.405583
   3337     0     3        0.000000        7.652885        8.351448       14.234091
   3338     0     3        0.000000        0.354896        2.178771        2.393916
   3339     0     3        0.000000        3.998091        1.809391       10.363778
   3340     0     3        0.000000        9.416451        8.958398        9.397281
   3341     0     3        0.000000        4.426585        0.751380        3.060211
   3342     0     3        0.000000        7.207494        4.450002        3.335445
   3343     0     3        0.000000        8.602647        4.107513        0.563520
   3344     0     3        0.000000        7.498954        1.510581        9.125058
   3345     0     3        0.000000        0.129344        1.865478       12.611093
   3346     0     3        0.000000        1.625541        5.863569       15.506119
   3347     0     3        0.000000        8.102902        1.200843        8.105511
   3348     0     3        0.000000        3.685236        0.617294        6.438948
   3349     0     3        0.000000        9.558537        5.043879        7.641157
   3350     0     3        0.000000        1.471169        2.251373       14.761160
   3351     0     3        0.000000        8.725385        1.426107       14.364033
   3352     0     3        0.000000        0.726137        0.028754        4.936054
   3353     0     3        0.000000        1.078336        7.527708        7.352984
   3354     0     3        0.000000        6.781498        7.657051       10.337749
   3355     0     3        0.000000        4.663431        9.282592        3.719459
   3356     0     3        0.000000        9.420700        1.070731        6.628478
   3357     0     3        0.000000        3.445042        0.629268       14.698685
   3358     0     3        0.000000        8.220766        2.100436        2.300882
   3359     0     3        0.000000        7.446491        5.656258       13.040074
   3360     0     3        0.000000        9.969384        4.381642       15.321846
   3361     0     3        0.000000        8.946904        5.107779       15.367852
   3362     0     3        0.000000        2.031938        6.186115       11.412184
   3363     0     3        0.000000        3.088647        7.631044        6.515613
   3364     0     3        0.000000        8.938814        1.406499        4.045574
   3365     0     3        0.000000        3.081613        4.851541        5.052402
   3366     0     3        0.000000        2.268291        3.072307        8.413100
   3367     0     3        0.000000        3.706342        0.518797        1.463113
   3368     0     3        0.000000        1.856388        0.488181        8.473741
   3369     0     3        0.000000        1.432542        9.435085        0.646187
   3370     0     3        0.000000        1.037450        1.467024       10.543972
   3371     0     3        0.000000        8.170065        8.094577       15.292153
   3372     0     3        0.000000        2.959731        1.183224       11.501823
   3373     0     3        0.000000        8.489742        5.535346        0.929500
   3374     0     3        0.000000        1.018226        8.616958        8.691965
   3375     0     3        0.000000        4.175977        0.885249       13.607656
   3376     0     3        0.000000        9.434165        4.591591       14.437732
   3377     0     3        0.000000        0.348611        6.447979       15.218822
   3378     0     3        0.000000        5.644699        7.880521       14.314959
   3379     0     3        0.000000        6.048566        8.917971        0.662196
   3380     0     3        0.000000        2.196144        0.047766       15.506677
   3381     0     3        0.000000        9.384784        7.079756       10.061128
   3382     0     3        0.000000        8.559222        5.569498        2.917681
   3383     0     3        0.000000        9.140160        6.587724        0.704815
   3384     0     3        0.000000        4.572638        0.763701        2.121213
   3385     0     3        0.000000        3.077423        0.197866        9.467758
   3386     0     3        0.000000        2.101006        0.546477        3.784524
   3387     0     3        0.000000        1.612769        6.191176        0.393358
   3388     0     3        0.000000        0.559619        2.239741       14.662112
   3389     0     3        0.000000        0.973491        4.878290       10.002969
   3390     0     3        0.000000        9.481941        7.074434       10.079395
   3391     0     3        0.000000        9.173614        6.459217        5.407004
   3392     0     3        0.000000        7.285370        4.158599        8.858559
   3393     0     3        0.000000        7.725879        8.731237       10.080481
   3394     0     3        0.000000        9.051637        1.808660       10.397067
   3395     0     3        0.000000        7.334314        5.522436        5.177310
   3396     0     3        0.000000        2.995838        6.537486       11.885254
   3397     0     3        0.000000        9.295460        5.711100        6.220002
   3398     0     3        0.000000        2.674837        1.172920       14.249505
   3399     0     3        0.000000        1.623713        8.458290        4.903264
   3400     0     3        0.000000        9.958779        0.204792       12.022566
   3401     0     3        0.000000        7.003423        7.539106        4.858463
   3402     0     3        0.000000        0.239241        5.119268       14.589750
   3403     0     3        0.000000        5.714802        1.863251        9.878622
   3404     0     3        0.000000        3.496936        4.154548       13.476361
   3405     0     3        0.000000        6.290378        8.453099       12.886296
   3406     0     3        0.000000        9.354918        5.613411        6.780966
   3407     0     3        0.000000        1.150695        9.074023       15.158256
   3408     0     3        0.000000        4.755133        9.032802       15.485923
   3409     0     3        0.000000        2.269237        6.036225       11.548493
   3410     0     3        0.000000        4.424370        1.990268        6.720524
   3411     0     3        0.000000        0.598509        8.058920       14.495065
   3412     0     3        0.000000        3.310135        1.555856        5.142343
   3413     0     3        0.000000        1.732860        8.940293        0.069360
   3414     0     3        0.000000        1.328505        5.230671       13.594318
   3415     0     3        0.000000        9.382440        4.585589        6.575775
   3416     0     3        0.000000        3.094453        0.491418        3.546696
   3417     0     3        0.000000        2.773156        2.760655       13.204656
   3418     0     3        0.000000        9.990964        8.066432        7.245403
   3419     0     3        0.000000        2.328040        2.490802       10.429832
   3420     0     3        0.000000        8.801747        8.132306        8.117943
   3421     0     3        0.000000        8.845097        9.460811        0.487016
   3422     0     3        0.000000        7.341546        8.843251        7.823959
   3423     0     3        0.000000        1.451405        2.463794        1.002014
   3424     0     3        0.000000        6.851973        8.331403        6.205330
   3425     0     3        0.000000        5.104883        8.322367        3.111621
   3426     0     3        0.000000        9.633260        0.650407        7.096905
   3427     0     3        0.000000        6.151904        7.178774       12.039804
   3428     0     3        0.000000        0.729470        2.766557        6.278918
   3429     0     3        0.000000        6.862891        1.568304        3.290608
   3430     0     3        0.000000        1.936605        0.413402        2.427905
   3431     0     3        0.000000        2.240990        7.754948        0.577107
   3432     0     3        0.000000        7.130964        9.206353        4.519177
   3433     0     3        0.000000        7.757223        3.841641       13.412374
   3434     0     3        0.000000        8.874899        0.693614       10.742619
   3435     0     3        0.000000        2.753231        5.798497        8.058405
   3436     0     3        0.000000        9.133560        1.583661        4.585094
   3437     0     3        0.000000        6.658437        2.313130        9.011585
   3438     0     3        0.000000        0.582761        9.176021       11.520872
   3439     0     3        0.000000        2.639391        1.112626       12.182315
   3440     0     3        0.000000        4.156832        3.353616        8.590231
   3441     0     3        0.000000        4.517523        0.484580        7.320396
   3442     0     3        0.000000        7.342009        8.241803       13.467021
   3443     0     3        0.000000        5.724743        7.116702       14.576802
   3444     0     3        0.000000        2.438879        9.869933        7.854397
   3445     0     3        0.000000        6.027976        0.359924        6.780072
   3446     0     3        0.000000        1.660217        0.942685        5.461705
   3447     0     3        0.000000        8.860762        3.582075        7.241906
   3448     0     3        0.000000        1.843602        2.256430       13.383019
   3449     0     3        0.000000        6.418850        9.598439       10.569903
   3450     0     3        0.000000        8.855237        5.237444       13.057201
   3451     0     3        0.000000        9.195991        8.399736        2.979580
   3452     0     3        0.000000        1.120406        4.427712        3.555458
   3453     0     3        0.000000        8.771516        4.948690       10.795075
   3454     0     3        0.000000        3.297707        1.423399        7.177326
   3455     0     3        0.000000        1.177514        3.267001       10.787614
   3456     0     3        0.000000        9.541901        9.685851       10.145117
   3457     0     3        0.000000        9.870982        8.467827       15.081507
   3458     0     3        0.000000        1.624557        6.519056        4.900994
   3459     0     3        0.000000        8.873803        1.768929       13.643925
   3460     0     3        0.000000        0.106553        6.244151        5.148564
   3461     0     3        0.000000        3.189510        1.934143       11.880466
   3462     0     3        0.000000        4.853391        1.805125        9.428990
   3463     0     3        0.000000        8.942718        6.893489       15.576383
   3464     0     3        0.000000        2.005839        0.380284       11.799522
   3465     0     3        0.000000        9.496673        6.089240        0.595382
   3466     0     3        0.000000        3.075435        4.963043        3.425668
   3467     0     3        0.000000        1.602888        0.583767       11.532286
   3468     0     3        0.000000        1.553740        0.690320        5.522927
   3469     0     3        0.000000        7.675296        0.728643        1.875238
   3470     0     3        0.000000        5.100587        5.582034        4.763439
   3471     0     3        0.000000        0.993706        9.861366       13.193729
   3472     0     3        0.000000        4.209889        8.804084        8.223312
   3473     0     3        0.000000        3.945128        0.809923        8.831766
   3474     0     3        0.000000        1.319829        0.306596        2.574550
   3475     0     3        0.000000        1.691943        3.382031       10.515419
   3476     0     3        0.000000        1.040664        6.538659       12.553959
   3477     0     3        0.000000        4.492493        1.310251        8.616570
   3478     0     3        0.000000        3.730374        8.985546        9.782399
   3479     0     3        0.000000        7.879547        5.079839        2.491838
   3480     0     3        0.000000        6.125628        9.289729        0.578372
   3481     0     3        0.000000        1.265197        3.234857        1.874248
   3482     0     3        0.000000        6.785051        4.554686        2.364801
   3483     0     3        0.000000        8.394145        6.246629        7.776051
   3484     0     3        0.000000        4.966282        0.079614       15.751921
   3485     0     3        0.000000        2.122186        1.120278       10.213774
   3486     0     3        0.000000        9.968410        5.612771       12.310176
   3487     0     3        0.000000        5.353766        9.343144       10.687050
   3488     0     3        0.000000        1.467765        4.245542        1.224863
   3489     0     3        0.000000        3.163798        2.125089        9.352606
   3490     0     3        0.000000        4.721197        8.250717        8.216172
   3491     0     3        0.000000        5.082679        9.515914       13.391943
   3492     0     3        0.000000        6.254085        6.300966        4.679441
   3493     0     3        0.000000        7.732085        4.695110       14.674048
   3494     0     3        0.000000        2.592117        9.661392       14.801431
   3495     0     3        0.000000        2.437067        1.783578        0.593875
   3496     0     3        0.000000        8.820676        1.751987        9.574308
   3497     0     3        0.000000        6.514536        7.105754        8.523339
   3498     0     3        0.000000        3.193942        8.573519       15.316206
   3499     0     3        0.000000        3.959482        1.737317        2.716349
   3500     0     3        0.000000        9.804861        6.458514       15.917496
   3501     0     3        0.000000        4.939968        1.541193       15.142960
   3502     0     3        0.000000        3.309933        7.795278        9.224504
   3503     0     3        0.000000        4.656757        0.556547        3.048633
   3504     0     3        0.000000        5.027929        9.377224        5.851813
   3505     0     3        0.000000        1.011871        5.891760        1.221019
   3506     0     3        0.000000        6.338958        9.085702       14.938649
   3507     0     3        0.000000        7.609306        2.850045       12.051979
   3508     0     3        0.000000        7.557741        7.790013       14.517888
   3509     0     3        0.000000        7.022090        1.099945       10.990333
   3510     0     3        0.000000        2.787406        7.334529        3.834114
   3511     0     3        0.000000        3.247831        2.740392        0.825282
   3512     0     3        0.000000        5.275045        2.425078        0.719316
   3513     0     3        0.000000        8.932428        3.436949       10.146131
   3514     0     3        0.000000        9.695565        9.775908        8.683254
   3515     0     3        0.000000        9.032220        5.687495       13.555549
   3516     0     3        0.000000        0.106194        3.296801        2.115620
   3517     0     3        0.000000        7.638681        0.854541       14.579641
   3518     0     3        0.000000        6.712361        7.876632        0.339553
   3519     0     3        0.000000        3.581319        0.664037       12.074799
   3520     0     3        0.000000        6.493441        7.281518       12.294864
   3521     0     3        0.000000        7.565789        2.556563        0.174989
   3522     0     3        0.000000        8.015361        1.488991        5.674108
   3523     0     3        0.000000        4.356693        1.184555        5.315560
   3524     0     3        0.000000        9.783727        0.216776       14.415552
   3525     0     3        0.000000        8.255945        0.322969        3.690433
   3526     0     3        0.000000        9.578208        7.961650        5.057699
   3527     0     3        0.000000        8.690483        4.674011        1.660309
   3528     0     3        0.000000        8.902704        8.255329        2.722769
   3529     0     3        0.000000        6.449454        4.232969        8.981759
   3530     0     3        0.000000        6.736595        0.726410        4.632188
   3531     0     3        0.000000        4.420885        8.292199        8.722689
   3532     0     3        0.000000        8.076570        0.664254       13.000363
   3533     0     3        0.000000        1.398795        0.447981       13.347204
   3534     0     3        0.000000        0.408515        8.703926       13.863955
   3535     0     3        0.000000        2.715035        8.282134       10.602595
   3536     0     3        0.000000        8.615521        2.324775        6.062289
   3537     0     3        0.000000        4.229121        9.061370        7.224544
   3538     0     3        0.000000        2.575919        8.012507       14.584158
   3539     0     3        0.000000        9.516590        6.089077       15.646964
   3540     0     3        0.000000        7.641817        7.487872        0.363734
   3541     0     3        0.000000        5.983820        7.896387       14.290016
   3542     0     3        0.000000        4.648792        0.611422       11.541431
   3543     0     3        0.000000        1.275413        6.487519        6.697619
   3544     0     3        0.000000        2.576046        3.401309        0.098133
   3545     0     3        0.000000        2.132008        2.016830        3.817773
   3546     0     3        0.000000        5.920938        6.245950        2.315965
   3547     0     3        0.000000        0.436278        3.370188        7.887573
   3548     0     3        0.000000        2.138269        3.104514       10.430703
   3549     0     3        0.000000        2.365602        9.088334        7.064922
   3550     0     3        0.000000        1.296862        3.737126        8.043197
   3551     0     3        0.000000        8.510257        5.012539        2.423226
   3552     0     3        0.000000        2.696268        7.588585        7.865320
   3553     0     3        0.000000        2.757602        9.720593       11.092248
   3554     0     3        0.000000        1.520921        9.321626        3.991841
   3555     0     3        0.000000        4.463161        1.680542       12.732157
   3556     0     3        0.000000        0.013668        6.184413        0.240714
   3557     0     3        0.000000        4.429244        7.481275        6.220116
   3558     0     3        0.000000        9.456242        5.991532       14.240178
   3559     0     3        0.000000        0.970759        8.687801       10.381915
   3560     0     3        0.000000        5.886584        1.445402        9.934863
   3561     0     3        0.000000        5.997843        3.180301       12.685806
   3562     0     3        0.000000        5.041537        9.164384       14.289275
   3563     0     3        0.000000        2.999135        2.658863        4.399372
   3564     0     3        0.000000        8.099266        6.558017        3.850925
   3565     0     3        0.000000        9.697364        6.234598       14.606629
   3566     0     3        0.000000        1.548184        2.232441        3.695111
   3567     0     3        0.000000        9.476812        4.779078       11.217067
   3568     0     3        0.000000        6.727067        9.820615        9.880082
   3569     0     3        0.000000        5.657864        2.819750       14.134262
   3570     0     3        0.000000        8.407471        6.880997        2.410312
   3571     0     3        0.000000        7.341492        1.092691       13.773152
   3572     0     3        0.000000        3.756788        9.191957        8.265979
   3573     0     3        0.000000        6.163615        6.191335        4.312021
   3574     0     3        0.000000        7.258244        9.679409        9.776596
   3575     0     3        0.000000        9.798275        9.376773        3.751952
   3576     0     3        0.000000        8.927418        0.924957        7.323858
   3577     0     3        0.000000        1.236863        0.401769       14.970382
   3578     0     3        0.000000        8.247530        7.128836       14.683366
   3579     0     3        0.000000        4.422581        2.786700        3.194965
   3580     0     3        0.000000        3.256495        1.194172       14.204560
   3581     0     3        0.000000        4.762940        8.535663       15.952866
   3582     0     3        0.000000        3.371160        2.292451       14.659997
   3583     0     3        0.000000        8.537397        8.456067        8.566133
   3584     0     3        0.000000        1.232410        5.714310        8.053188
   3585     0     3        0.000000        9.687752        4.440003        8.535956
   3586     0     3        0.000000        3.621652        3.924396        4.584924
   3587     0     3        0.000000        2.798756        8.346976        9.043645
   3588     0     3        0.000000        4.795609        1.603471       10.954319
   3589     0     3        0.000000        3.644000        9.737571       12.279302
   3590     0     3        0.000000        2.806499        8.274967        9.809009
   3591     0     3        0.000000        8.160332        9.507377        2.951905
   3592     0     3        0.000000        2.938563        0.803074       11.959031
   3593     0     3        0.000000        8.675304        4.424726        2.238064
   3594     0     3        0.000000        1.540882        7.223482       15.593226
   3595     0     3        0.000000        7.193160        2.019091        2.158781
   3596     0     3        0.000000        9.421722        9.336550       11.925151
   3597     0     3        0.000000        7.096286        2.143048        9.165099
   3598     0     3        0.000000        3.226916        0.303380        8.376902
   3599     0     3        0.000000        2.429383        1.100545       13.797814
   3600     0     3        0.000000        1.701306        2.714412        6.162294
   3601     0     3        0.000000        2.845863        1.448453        4.950410
   3602     0     3        0.000000        9.363969        2.006070        0.425846
   3603     0     3        0.000000        0.327720        0.304843        6.506382
   3604     0     3        0.000000        2.413442        2.734226        8.267254
   3605     0     3        0.000000        1.037076        6.961138       14.729827
   3606     0     3        0.000000        0.463784        8.662444        3.072886
   3607     0     3        0.000000        4.315218        1.762540        9.881356
   3608     0     3        0.000000        8.484140        8.803504        4.979781
   3609     0     3        0.000000        7.270696        0.714253       12.835435
   3610     0     3        0.000000        5.393802        0.078222        0.045147
   3611     0     3        0.000000        0.295978        7.911540       13.280436
   3612     0     3        0.000000        5.463012        8.948616        8.418256
   3613     0     3        0.000000        4.669154        9.412400        6.278166
   3614     0     3        0.000000        6.589708        3.727618        9.098230
   3615     0     3        0.000000        2.765555        9.117752        0.471675
   3616     0     3        0.000000        0.389856        7.601892       14.557281
   3617     0     3        0.000000        1.524366        0.266390       15.825242
   3618     0     3        0.000000        1.552583        5.926346        8.097846
   3619     0     3        0.000000        6.813786        2.155835        0.894802
   3620     0     3        0.000000        2.379833        2.451813       13.553265
   3621     0     3        0.000000        0.680105        7.914825       11.871051
   3622     0     3        0.000000        9.865369        9.173687        0.895080
   3623     0     3        0.000000        5.551763        1.939242       15.483483
   3624     0     3        0.000000        4.757414        7.355682        3.868876
   3625     0     3        0.000000        4.648190        8.908265       13.351029
   3626     0     3        0.000000        9.709344        5.722052        0.800365
   3627     0     3        0.000000        0.268595        8.101884        4.723266
   3628     0     3        0.000000        8.739386        8.781989        1.386987
   3629     0     3        0.000000        3.550025        0.140635        7.302040
   3630     0     3        0.000000        0.506270        0.932055        4.358702
   3631     0     3        0.000000        2.657928        5.689470        0.127794
   3632     0     3        0.000000        5.075975        0.337660       14.381019
   3633     0     3        0.000000        3.420368        0.047004        7.536302
   3634     0     3        0.000000        3.920596        0.315600        4.499316
   3635     0     3        0.000000        6.872638        9.054986        2.550499
   3636     0     3        0.000000        1.190351        8.204379        1.450300
   3637     0     3        0.000000        3.814884        1.754404        1.675317
   3638     0     3        0.000000        8.378658        4.981606       11.254829
   3639     0     3        0.000000        7.995720        8.145804        5.849269
   3640     0     3        0.000000        8.075591        3.221779        6.389525
   3641     0     3        0.000000        1.773917        0.562743        6.969692
   3642     0     3        0.000000        3.404054        0.180119       13.733771
   3643     0     3        0.000000        4.451127        8.558777        5.704340
   3644     0     3        0.000000        1.485395        3.830308       14.484941
   3645     0     3        0.000000        9.451718        1.826028       11.518227
   3646     0     3        0.000000        3.107511        9.901619        0.673073
   3647     0     3        0.000000        1.141423        8.739264       12.200896
   3648     0     3        0.000000        5.497480        3.325253        8.097504
   3649     0     3        0.000000        8.908524        9.505304        0.377320
   3650     0     3        0.000000        7.533348        2.002920       10.561697
   3651     0     3        0.000000        2.946157        9.858101        8.543931
   3652     0     3        0.000000        6.511369        1.343496       14.672424
   3653     0     3        0.000000        5.564457        0.795214        1.594069
   3654     0     3        0.000000        3.184020        1.003689       12.581215
   3655     0     3        0.000000        0.246837        2.145112       10.564037
   3656     0     3        0.000000        7.872397        7.642592       15.884442
   3657     0     3        0.000000        3.169162        4.084464        2.297600
   3658     0     3        0.000000        9.770223        8.447014       10.948758
   3659     0     3        0.000000        6.551402        1.393171       10.721720
   3660     0     3        0.000000        1.891359        7.904540       12.871312
   3661     0     3        0.000000        1.061624        3.468997       14.143654
   3662     0     3        0.000000        2.057917        6.232347        4.388014
   3663     0     3        0.000000        2.955829        9.416367        5.993917
   3664     0     3        0.000000        0.819089        9.663204        9.426096
   3665     0     3        0.000000        7.421612        7.535601        5.654244
   3666     0     3        0.000000        7.349389        0.468939        0.136031
   3667     0     3        0.000000        8.218469        3.408324        4.186397
   3668     0     3        0.000000        5.061443        9.959726        6.415470
   3669     0     3        0.000000        1.762517        1.851085        3.062734
   3670     0     3        0.000000        9.807088        2.912709        8.613130
   3671     0     3        0.000000        8.646872        4.970627        2.584885
   3672     0     3        0.000000        1.389380        7.926456        1.651071
   3673     0     3        0.000000        5.135578        8.745545        1.112198
   3674     0     3        0.000000        1.026888        6.167157       13.169160
   3675     0     3        0.000000        4.645810        0.299015        3.740424
   3676     0     3        0.000000        8.815294        8.517483        9.193743
   3677     0     3        0.000000        1.431792        3.578926        9.129304
   3678     0     3        0.000000        2.738875        3.795403        8.704378
   3679     0     3        0.000000        5.386348        0.320361        3.379580
   3680     0     3        0.000000        6.081472        1.347250       13.247032
   3681     0     3        0.000000        3.011861        0.553851        3.351928
   3682     0     3        0.000000        5.349626        9.369145        0.979902
   3683     0     3        0.000000        1.095715        0.800936        6.706184
   3684     0     3        0.000000        0.268277        0.691370        5.858442
   3685     0     3        0.000000        3.634970        6.077717        6.371021
   3686     0     3        0.000000        5.822543        9.483246        2.865648
   3687     0     3        0.000000        8.529937        5.928588        3.137777
   3688     0     3        0.000000        2.721302        2.730118       13.125612
   3689     0     3        0.000000        2.254111        7.088549        2.882518
   3690     0     3        0.000000        6.935451        1.916590       13.021624
   3691     0     3        0.000000        5.412194        2.184867       14.127816
   3692     0     3        0.000000        9.073721        5.819837        7.852163
   3693     0     3        0.000000        3.055609        1.567045       11.306866
   3694     0     3        0.000000        8.384747        5.593647        5.661083
   3695     0     3        0.000000        9.621925        1.416190        4.834277
   3696     0     3        0.000000        1.412955        9.333689       12.566873
   3697     0     3        0.000000        2.573130        7.863626        6.052614
   3698     0     3        0.000000        4.534241        0.584928       10.420803
   3699     0     3        0.000000        4.539322        9.774490        8.829025
   3700     0     3        0.000000        2.677837        5.186684       12.324813
   3701     0     3        0.000000        1.507722        4.260405        5.636553
   3702     0     3        0.000000        7.020292        5.322686        3.359565
   3703     0     3        0.000000        0.041715        6.735641        2.293467
   3704     0     3        0.000000        7.896011        9.308771       14.875268
   3705     0     3        0.000000        1.678895        3.843011       15.811152
   3706     0     3        0.000000        8.191896        6.580760        4.353614
   3707     0     3        0.000000        1.793447        1.120082        3.992797
   3708     0     3        0.000000        8.537442        1.720965       14.813761
   3709     0     3        0.000000        3.627332        5.203081        7.934977
   3710     0     3        0.000000        7.844015        0.161100       10.122333
   3711     0     3        0.000000        7.141057        1.839995        0.271151
   3712     0     3        0.000000        7.023027        0.031891       10.800366
   3713     0     3        0.000000        9.744036        1.825338       12.592498
   3714     0     3        0.000000        2.239534        9.136926        2.669168
   3715     0     3        0.000000        9.921717        4.151522       11.158194
   3716     0     3        0.000000        1.864304        2.688964       13.911739
   3717     0     3        0.000000        1.122905        6.316296        6.236668
   3718     0     3        0.000000        6.082266        0.627166        9.794065
   3719     0     3        0.000000        9.708458        2.022836        0.619958
   3720     0     3        0.000000        9.877927        9.045863        0.670983
   3721     0     3        0.000000        6.628156        8.789899        3.591524
   3722     0     3        0.000000        4.498467        1.029433        2.210606
   3723     0     3        0.000000        6.166697        0.951150        8.853041
   3724     0     3        0.000000        1.835406        3.938359        7.261456
   3725     0     3        0.000000        5.733323        0.020625        8.264921
   3726     0     3        0.000000        1.854614        6.384937        3.525343
   3727     0     3        0.000000        0.240993        9.766937       11.336188
   3728     0     3        0.000000        8.788472        9.475395       14.572725
   3729     0     3        0.000000        9.175946        9.353321       13.046106
   3730     0     3        0.000000        9.595310        5.981477       11.109944
   3731     0     3        0.000000        1.840013        0.479944       12.757038
   3732     0     3        0.000000        3.221641        6.646641       14.278878
   3733     0     3        0.000000        8.754792        9.787210        2.783605
   3734     0     3        0.000000        6.976906        1.622616        9.084980
   3735     0     3        0.000000        1.515316        7.355939        9.117980
   3736     0     3        0.000000        6.680892        9.210553        3.333880
   3737     0     3        0.000000        8.884231        9.451547        2.960979
   3738     0     3        0.000000        5.969348        8.240019        2.121611
   3739     0     3        0.000000        3.231118        7.011275       10.657289
   3740     0     3        0.000000        0.174833        8.851288       11.425199
   3741     0     3        0.000000        8.147981        2.072930        6.059825
   3742     0     3        0.000000        7.072280        0.827722        5.719361
   3743     0     3        0.000000        8.812033        7.804628        8.315546
   3744     0     3        0.000000        4.490146        9.319944        4.085049
   3745     0     3        0.000000        0.188883        6.000835        2.821934
   3746     0     3        0.000000        4.123170        0.854415       15.128439
   3747     0     3        0.000000        6.128505        9.162834        6.212023
   3748     0     3        0.000000        2.789311        9.337666        4.374084
   3749     0     3        0.000000        9.930060        7.485648        7.690771
   3750     0     3        0.000000        3.717451        4.557927        9.015126
   3751     0     3        0.000000        7.292052        3.369960        5.502530
   3752     0     3        0.000000        2.489268        7.860106        4.414440
   3753     0     3        0.000000        5.042424        8.048989       14.015777
   3754     0     3        0.000000        6.806132        0.321548        5.831883
   3755     0     3        0.000000        8.021388        4.444718        7.198947
   3756     0     3        0.000000        7.476662        9.893895        0.689693
   3757     0     3        0.000000        8.230416        8.811711       14.290493
   3758     0     3        0.000000        0.964218        8.741771       10.267529
   3759     0     3        0.000000        1.405403        9.751274        6.952150
   3760     0     3        0.000000        4.844485        2.240543        3.528320
   3761     0     3        0.000000        7.603510        7.282966        0.406703
   3762     0     3        0.000000        0.008297        2.110487        8.032729
   3763     0     3        0.000000        4.507639        9.587149        7.862962
   3764     0     3        0.000000        3.464147        3.129684       13.584375
   3765     0     3        0.000000        9.881353        8.900634        1.519131
   3766     0     3        0.000000        0.856486        0.306037        1.121170
   3767     0     3        0.000000        7.406780        2.754032        0.358785
   3768     0     3        0.000000        7.660970        9.117402        6.901343
   3769     0     3        0.000000        8.236707        9.125700       10.278122
   3770     0     3        0.000000        8.171514        8.572036       15.913640
   3771     0     3        0.000000        9.108265        3.104625        3.378386
   3772     0     3        0.000000        8.856728        6.568772        8.385880
   3773     0     3        0.000000        8.296420        7.306611        7.116554
   3774     0     3        0.000000        8.997151        2.508192       15.357389
   3775     0     3        0.000000        1.938425        9.914972        3.763840
   3776     0     3        0.000000        2.162666        7.575941        2.351684
   3777     0     3        0.000000        2.899831        9.069811        6.766146
   3778     0     3        0.000000        8.910806        7.241324        4.481403
   3779     0     3        0.000000        8.856831        6.349590        9.448802
   3780     0     3        0.000000        0.968322        5.206318        3.958837
   3781     0     3        0.000000        6.209497        2.553281       14.279037
   3782     0     3        0.000000        0.351306        0.849701        9.969615
   3783     0     3        0.000000        4.799152        9.846852       13.982722
   3784     0     3        0.000000        4.397520        1.785278       13.846677
   3785     0     3        0.000000        6.749920        3.947944        9.968183
   3786     0     3        0.000000        8.219723        0.423949        3.268420
   3787     0     3        0.000000        8.815225        3.323780        1.780117
   3788     0     3        0.000000        3.044066        2.234586       13.366236
   3789     0     3        0.000000        5.844943        1.091417        7.525579
   3790     0     3        0.000000        1.750444        2.059739       15.855688
   3791     0     3        0.000000        4.224717        8.269236        3.940938
   3792     0     3        0.000000        3.149115        8.620542        5.300460
   3793     0     3        0.000000        9.380125        3.419693        5.055424
   3794     0     3        0.000000        8.119326        7.817214        7.911868
   3795     0     3        0.000000        6.773500        4.567134       14.228578
   3796     0     3        0.000000        5.046377        1.602082        4.224943
   3797     0     3        0.000000        4.512847        0.491091        9.546547
   3798     0     3        0.000000        9.216334        2.241535       12.842129
   3799     0     3        0.000000        9.126140        6.466252       10.072907
   3800     0     3        0.000000        1.589226        9.615368        7.865773
   3801     0     3        0.000000        4.902013        8.995493       13.337282
   3802     0     3        0.000000        8.061653        7.114820        9.844824
   3803     0     3        0.000000        1.899432        6.891933        5.611210
   3804     0     3        0.000000        1.216241        1.938310        8.174541
   3805     0     3        0.000000        3.856831        8.097260       15.608378
   3806     0     3        0.000000        8.732006        2.610107        0.394124
   3807     0     3        0.000000        2.724929        0.952581       14.326584
   3808     0     3        0.000000        9.020495        2.541807       13.711173
   3809     0     3        0.000000        3.936603        7.443820       12.103962
   3810     0     3        0.000000        8.425420        8.512043       13.708984
   3811     0     3        0.000000        9.145569        0.411475        8.736077
   3812     0     3        0.000000        2.652575        1.627716       11.837373
   3813     0     3        0.000000        7.516900        4.216553       12.969160
   3814     0     3        0.000000        7.763227        8.915151       15.891466
   3815     0     3        0.000000        0.251090        1.640079        1.415596
   3816     0     3        0.000000        9.205205        0.660575        5.482487
   3817     0     3        0.000000        5.339664        6.869583       10.201356
   3818     0     3        0.000000        0.019460        5.295003        7.820625
   3819     0     3        0.000000        8.587575        4.440573        8.478985
   3820     0     3        0.000000        1.445981        4.854812        3.858606
   3821     0     3        0.000000        6.941599        2.371712       10.605091
   3822     0     3        0.000000        5.047324        0.134939        8.869332
   3823     0     3        0.000000        4.979490        0.386029       11.493459
   3824     0     3        0.000000        5.864238        9.591234       12.550379
   3825     0     3        0.000000        9.290792        7.365923        3.905864
   3826     0     3        0.000000        0.161166        2.705587       14.897197
   3827     0     3        0.000000        1.424905        1.312622       14.474119
   3828     0     3        0.000000        6.062981        3.747826        5.385595
   3829     0     3        0.000000        2.691163        8.795150        5.601498
   3830     0     3        0.000000        8.234495        3.774640        6.219145
   3831     0     3        0.000000        5.417907        9.638877        5.565120
   3832     0     3        0.000000        3.261894        8.929669        1.350596
   3833     0     3        0.000000        5.703059        9.090836        5.679535
   3834     0     3        0.000000        9.619559        7.052754       12.139805
   3835     0     3        0.000000        8.665883        3.777025        4.716198
   3836     0     3        0.000000        4.805356        7.428377       15.606160
   3837     0     3        0.000000        9.165638        6.182521        3.674921
   3838     0     3        0.000000        6.553539        9.834924        9.136548
   3839     0     3        0.000000        0.031739        3.096817        7.424019
   3840     0     3        0.000000        0.875862        8.799876        5.969356
   3841     0     3        0.000000        0.700327        3.433242       10.258323
   3842     0     3        0.000000        8.287705        2.099125        0.301563
   3843     0     3        0.000000        1.235329        6.904482       12.186967
   3844     0     3        0.000000        0.989179        2.704123        1.773140
   3845     0     3        0.000000        4.490855        1.869760       11.665174
   3846     0     3        0.000000        6.787680        4.536334        2.732400
   3847     0     3        0.000000        2.859145        1.089873        2.468278
   3848     0     3        0.000000        8.569488        1.121613        7.423186
   3849     0     3        0.000000        3.209500        1.997474        5.502988
   3850     0     3        0.000000        6.299045        7.123372        1.098068
   3851     0     3        0.000000        0.515828        7.635585        3.830436
   3852     0     3        0.000000        1.624041        2.126440        6.822053
   3853     0     3        0.000000        8.914774        8.914120       14.080188
   3854     0     3        0.000000        0.622525        1.773266       15.823985
   3855     0     3        0.000000        2.165198        0.342754        1.618565
   3856     0     3        0.000000        6.804690        3.552253        4.814524
   3857     0     3        0.000000        0.244057        0.492601       15.091396
   3858     0     3        0.000000        8.183401        9.502143        3.146514
   3859     0     3        0.000000        0.968819        2.401116       13.780764
   3860     0     3        0.000000        0.658719        2.916944        9.997700
   3861     0     3        0.000000        3.052741        4.540985       13.400004
   3862     0     3        0.000000        7.316524        3.455759       11.662597
   3863     0     3        0.000000        6.116641        4.078284       14.499822
   3864     0     3        0.000000        7.018235        3.048172        4.731834
   3865     0     3        0.000000        0.027313        3.292229        5.519995
   3866     0     3        0.000000        9.459435        0.789337        0.386629
   3867     0     3        0.000000        6.014929        8.972737       15.590057
   3868     0     3        0.000000        7.981501        9.941556        3.431843
   3869     0     3        0.000000        6.594478        0.600275        8.098954
   3870     0     3        0.000000        2.843041        3.653016       15.364530
   3871     0     3        0.000000        1.218043        0.969541        4.893744
   3872     0     3        0.000000        8.507167        7.086182       11.418998
   3873     0     3        0.000000        7.569555        3.092814        5.408570
   3874     0     3        0.000000        6.974698        0.111049       10.285645
   3875     0     3        0.000000        9.932094        0.138362       15.553211
   3876     0     3        0.000000        3.382091        9.597797        0.816150
   3877     0     3        0.000000        5.512422        0.188705        0.039460
   3878     0     3        0.000000        0.574268        3.031746        5.884286
   3879     0     3        0.000000        0.177099        4.249790        7.435551
   3880     0     3        0.000000        3.235689        2.756956        2.773442
   3881     0     3        0.000000        0.372563        0.326512        7.721945
   3882     0     3        0.000000        0.181447        7.233304        8.121004
   3883     0     3        0.000000        9.902204        0.615395        7.477479
   3884     0     3        0.000000        0.412298        4.239130        0.457842
   3885     0     3        0.000000        9.895129        7.606649        6.208605
   3886     0     3        0.000000        9.319517        3.119071        6.510533
   3887     0     3        0.000000        9.344180        3.693339       11.361327
   3888     0     3        0.000000        3.021859        3.870437        2.160990
   3889     0     3        0.000000        7.669078        7.106126        6.572120
   3890     0     3        0.000000        9.402479        7.478689        7.094538
   3891     0     3        0.000000        4.228695        1.231608        2.776474
   3892     0     3        0.000000        9.165960        1.413055       14.349760
   3893     0     3        0.000000        4.241587        1.315259       15.334393
   3894     0     3        0.000000        8.915012        1.727557        6.117000
   3895     0     3        0.000000        9.201163        1.622686        2.287639
   3896     0     3        0.000000        3.081541        0.942203        7.278152
   3897     0     3        0.000000        7.150624        0.286383       13.187494
   3898     0     3        0.000000        4.251453        3.308242        3.380193
   3899     0     3        0.000000        5.602072        0.977320       14.749995
   3900     0     3        0.000000        9.709647        0.379799       10.715898
   3901     0     3        0.000000        5.879030        3.774454       14.947358
   3902     0     3        0.000000        4.431626        6.931053        3.815863
   3903     0     3        0.000000        8.254750        6.132216        6.412161
   3904     0     3        0.000000        9.684525        9.213757        7.919686
   3905     0     3        0.000000        2.475553        0.615834       13.671086
   3906     0     3        0.000000        0.504357        0.071288        7.216066
   3907     0     3        0.000000        8.433401        5.950317       13.255193
   3908     0     3        0.000000        7.775500        0.797948       10.080859
   3909     0     3        0.000000        8.432857        5.229573        5.170544
   3910     0     3        0.000000        0.817771        3.484324       14.982090
   3911     0     3        0.000000        9.775176        7.402218        7.907110
   3912     0     3        0.000000        5.011363        9.877771        8.892445
   3913     0     3        0.000000        3.077540        8.272866       12.325182
   3914     0     3        0.000000        2.979088        8.777223       12.439242
   3915     0     3        0.000000        7.489129        7.210624        5.959750
   3916     0     3        0.000000        2.074161        3.418981       15.603783
   3917     0     3        0.000000        4.669557        9.062124       10.248858
   3918     0     3        0.000000        3.247120        8.837300        6.092406
   3919     0     3        0.000000        8.189064        3.848664        5.896840
   3920     0     3        0.000000        3.746842        7.404455       13.042352
   3921     0     3        0.000000        5.522527        0.481996       10.278938
   3922     0     3        0.000000        1.000291        0.950212        3.859494
   3923     0     3        0.000000        9.247926        8.797998        1.307662
   3924     0     3        0.000000        9.000290        4.103749        8.086466
   3925     0     3        0.000000        2.236978        8.773306        6.585865
   3926     0     3        0.000000        8.642514        2.020426        4.725546
   3927     0     3        0.000000        2.450268        0.209490       10.883407
   3928     0     3        0.000000        4.287263        9.478859        7.501729
   3929     0     3        0.000000        0.711599        2.704624       13.039462
   3930     0     3        0.000000        5.913158        3.704915       14.559802
   3931     0     3        0.000000        8.325342        8.430050        9.317940
   3932     0     3        0.000000        5.723650        7.677976        7.394737
   3933     0     3        0.000000        6.540939        6.678266       13.960735
   3934     0     3        0.000000        1.594980        8.915244       11.998025
   3935     0     3        0.000000        5.711146        7.557758       15.230707
   3936     0     3        0.000000        8.664612        0.008026       15.565892
   3937     0     3        0.000000        9.673326        0.431081        5.062197
   3938     0     3        0.000000        4.361907        1.142680        9.389595
   3939     0     3        0.000000        2.511571        7.055838       15.317459
   3940     0     3        0.000000        1.611447        5.381181       12.805538
   3941     0     3        0.000000        7.435159        1.104831        9.090300
   3942     0     3        0.000000        2.056870        7.645770        3.775525
   3943     0     3        0.000000        0.782329        9.240750        2.039915
   3944     0     3        0.000000        8.281095        4.951896       14.132328
   3945     0     3        0.000000        7.800287        3.616508       14.145170
   3946     0     3        0.000000        7.528969        9.083249        7.975280
   3947     0     3        0.000000        1.213984        8.756575        8.665010
   3948     0     3        0.000000        0.246354        5.630052        5.782639
   3949     0     3        0.000000        9.819766        7.241499       14.392528
   3950     0     3        0.000000        7.823227        4.676658        0.160258
   3951     0     3        0.000000        7.139315        5.796952        3.101723
   3952     0     3        0.000000        4.812751        1.126209        7.421334
   3953     0     3        0.000000        9.797301        2.340193        5.431854
   3954     0     3        0.000000        1.771243        6.964404        3.429509
   3955     0     3        0.000000        5.385392        6.784169       15.015907
   3956     0     3        0.000000        2.226814        3.976428       13.297578
   3957     0     3        0.000000        9.213495        1.115743        6.572702
   3958     0     3        0.000000        1.152072        7.087763       12.328285
   3959     0     3        0.000000        6.707157        1.900514       14.130219
   3960     0     3        0.000000        1.345491        1.697814        1.874528
   3961     0     3        0.000000        4.740400        6.910746       12.623408
   3962     0     3        0.000000        1.253790        8.681989        7.766454
   3963     0     3        0.000000        3.397233        4.067381        2.621124
   3964     0     3        0.000000        2.782175        8.448103        9.992958
   3965     0     3        0.000000        6.843776        2.928987        6.972255
   3966     0     3        0.000000        0.057829        5.521369       10.460148
   3967     0     3        0.000000        7.763007        2.228526       13.500969
   3968     0     3        0.000000        7.765974        8.314416       11.274666
   3969     0     3        0.000000        5.655604        9.568206        9.165848
   3970     0     3        0.000000        0.509638        2.965439       15.673658
   3971     0     3        0.000000        8.393439        2.591391        1.877002
   3972     0     3        0.000000        2.751098        0.230295       10.126284
   3973     0     3        0.000000        1.085185        6.180186        1.117158
   3974     0     3        0.000000        0.535015        6.238015        9.951348
   3975     0     3        0.000000        5.510713        0.595416        3.235416
   3976     0     3        0.000000        5.646634        8.361391        0.538482
   3977     0     3        0.000000        8.421955        4.526633        4.592315
   3978     0     3        0.000000        8.217992        6.674473       13.788499
   3979     0     3        0.000000        7.635258        7.819010        2.303195
   3980     0     3        0.000000        3.964185        8.904195       12.191492
   3981     0     3        0.000000        4.662409        9.439210        6.172316
   3982     0     3        0.000000        0.882001        6.511818       12.573951
   3983     0     3        0.000000        9.330119        2.022531       13.526617
   3984     0     3        0.000000        1.352254        7.669165       10.904842
   3985     0     3        0.000000        1.688805        0.362465        1.332034
   3986     0     3        0.000000        1.593563        8.784420        8.574646
   3987     0     3        0.000000        4.290773        1.099801        7.872877
   3988     0     3        0.000000        3.349953        9.726395        5.222326
   3989     0     3        0.000000        7.207651        0.608396       15.641235
   3990     0     3        0.000000        5.066370        9.938516        2.877285
   3991     0     3        0.000000        3.520505        1.290770       15.147949
   3992     0     3        0.000000        0.336031        2.979576       15.727893
   3993     0     3        0.000000        1.168553        4.573138       13.782965
   3994     0     3        0.000000        6.527706        9.036898        8.986823
   3995     0     3        0.000000        8.561333        2.118469       14.530092
   3996     0     3        0.000000        0.583419        2.139513        8.392152
   3997     0     3        0.000000        4.408163        5.489467        7.954384
   3998     0     3        0.000000        7.672117        2.697117        8.927818
   3999     0     3        0.000000        7.447889        7.763487        8.829443
   4000     0     3        0.000000        9.246192        1.283993       10.894675
   4001     0     3        0.000000        8.713660        1.620024       15.661996
   4002     0     3        0.000000        8.543593        2.788577        6.979017
   4003     0     3        0.000000        7.157946        9.316283        5.438054
   4004     0     3        0.000000        2.774711        7.877615        8.827605
   4005     0     3        0.000000        1.856018        3.540486        3.082393
   4006     0     3        0.000000        2.037127        4.123906        6.505615
   4007     0     3        0.000000        7.282222        8.532069       15.288761
   4008     0     3        0.000000        7.833598        3.652075        0.025728
   4009     0     3        0.000000        0.161172        1.611927        4.672155
   4010     0     3        0.000000        9.949919        0.155520        9.133877
   4011     0     3        0.000000        7.710589        0.088176        4.644114
   4012     0     3        0.000000        3.227842        1.944195       10.308893
   4013     0     3        0.000000        5.154338        3.981322        0.907142
   4014     0     3        0.000000        9.220347        1.263543       14.558451
   4015     0     3        0.000000        8.775823        3.517255        8.485148
   4016     0     3        0.000000        1.028416        1.350852       14.328468
   4017     0     3        0.000000        1.044496        4.702852        2.965694
   4018     0     3        0.000000        0.973339        9.125747        1.495154
   4019     0     3        0.000000        8.900866        0.064178        4.746948
   4020     0     3        0.000000        0.313137        4.243101        4.927702
   4021     0     3        0.000000        9.268430        5.287597       12.452265
   4022     0     3        0.000000        1.121989        7.632165        4.234702
   4023     0     3        0.000000        4.587475        2.896830       11.937009
   4024     0     3        0.000000        8.208480        3.870169       10.538205
   4025     0     3        0.000000        9.142951        9.868464        5.476343
   4026     0     3        0.000000        0.165599        8.769330        5.579029
   4027     0     3        0.000000        3.132441        4.113254       13.928655
   4028     0     3        0.000000        0.080605        0.024141        5.030836
   4029     0     3        0.000000        8.292313        5.034061       10.174333
   4030     0     3        0.000000        0.021274        5.347198        0.963295
   4031     0     3        0.000000        0.883754        5.737617        5.634914
   4032     0     3        0.000000        3.530443        0.325092       10.269843
   4033     0     3        0.000000        0.991074        8.533572        0.462113
   4034     0     3        0.000000        7.577452        7.676523        0.251655
   4035     0     3        0.000000        1.000166        7.842122       14.282583
   4036     0     3        0.000000        4.487059        0.974563        4.863789
   4037     0     3        0.000000        3.192468        1.055169        4.902415
   4038     0     3        0.000000        6.336741        9.347481       12.956912
   4039     0     3        0.000000        2.695698        9.368756        5.512430
   4040     0     3        0.000000        9.187414        3.353598        6.077622
   4041     0     3        0.000000        2.709235        6.884040        6.597769
   4042     0     3        0.000000        9.127887        7.875114        4.251484
   4043     0     3        0.000000        9.416708        5.452566        0.533921
   4044     0     3        0.000000        9.573992        6.452732       13.081316
   4045     0     3        0.000000        8.500606        0.939791       14.640617
   4046     0     3        0.000000        1.540474        4.132260        0.328887
   4047     0     3        0.000000        4.604483        0.469000       15.284857
   4048     0     3        0.000000        2.702554        3.164699       14.274866
   4049     0     3        0.000000        6.147822        6.462456        2.226617
   4050     0     3        0.000000        8.007233        8.359105        2.606838
   4051     0     3        0.000000        2.130839        7.486992       15.207021
   4052     0     3        0.000000        4.788016        6.903700        7.931126
   4053     0     3        0.000000        2.653479        1.123255       11.121180
   4054     0     3        0.000000        1.128306        9.973631       10.524628
   4055     0     3        0.000000        7.265175        2.189583        0.938988
   4056     0     3        0.000000        8.894449        4.320422       12.918176
   4057     0     3        0.000000        8.398837        9.108438        7.964095
   4058     0     3        0.000000        3.355791        4.230154        2.328401
   4059     0     3        0.000000        4.765477        7.527692       10.293677
   4060     0     3        0.000000        7.114954        9.975616        4.723712
   4061     0     3        0.000000        3.596691        2.629095        6.520920
   4062     0     3        0.000000        0.547429        4.835610       12.642215
   4063     0     3        0.000000        0.662865        5.963916       12.600024
   4064     0     3        0.000000        7.240757        8.483858        3.291785
   4065     0     3        0.000000        9.468520        5.749034        6.795118
   4066     0     3        0.000000        0.055388        4.643483       13.707793
   4067     0     3        0.000000        8.129247        3.042320       12.281293
   4068     0     3        0.000000        4.562057        1.163589       15.093846
   4069     0     3        0.000000        0.995606        8.278543       15.054832
   4070     0     3        0.000000        3.947926        1.875235        3.261385
   4071     0     3        0.000000        8.023501        2.422663       10.998361
   4072     0     3        0.000000        5.924885        3.085528        4.540627
   4073     0     3        0.000000        3.799901        0.326285        2.114801
   4074     0     3        0.000000        5.857266        9.794805       11.313255
   4075     0     3        0.000000        0.104215        9.850193        2.742828
   4076     0     3        0.000000        8.671586        7.979440        7.610540
   4077     0     3        0.000000        6.347394        1.086247        1.847519
   4078     0     3        0.000000        8.253355        5.648304        3.709261
   4079     0     3        0.000000        7.096280        0.591836        3.955305
   4080     0     3        0.000000        9.134645        8.615337        7.831566
   4081     0     3        0.000000        8.846513        8.340123       13.290468
   4082     0     3        0.000000        0.168263        4.197389       12.962156
   4083     0     3        0.000000        8.953315        2.973189        9.489570
   4084     0     3        0.000000        3.709902        9.320583       11.227565
   4085     0     3        0.000000        7.182889        5.260948       14.895108
   4086     0     3        0.000000        7.779720        2.357227       15.842046
   4087     0     3        0.000000        0.251786        1.491873       13.626585
   4088     0     3        0.000000        3.126772        6.347006        2.235137
   4089     0     3        0.000000        1.433314        6.515269        8.950960
   4090     0     3        0.000000        9.534662        3.754317       15.833526
   4091     0     3        0.000000        7.486203        2.707631        4.590629
   4092     0     3        0.000000        0.434412        1.282135       15.621864
   4093     0     3        0.000000        3.099944        8.465025        8.039380
   4094     0     3        0.000000        2.409387        6.244745       11.810944
   4095     0     3        0.000000        2.310666        6.496531       14.197941
   4096     0     3        0.000000        0.827281        1.643046       10.198730
   4097     0     3        0.000000        0.875430        5.737793        4.785278
   4098     0     3        0.000000        0.771384        3.223996        9.117488
   4099     0     3        0.000000        5.830253        7.075592        5.436958
   4100     0     3        0.000000        5.593918        0.175536        2.980997
   4101     0     3        0.000000        0.618531        2.584923       12.972589
   4102     0     3        0.000000        6.874084        5.722870        9.995912
   4103     0     3        0.000000        3.248290        9.606990        1.627620
   4104     0     3        0.000000        5.205984        5.763501        4.733100
   4105     0     3        0.000000        8.196783        6.534885        9.891494
   4106     0     3        0.000000        3.895213        0.175412        4.517382
   4107     0     3        0.000000        9.409275        1.599584        0.119186
   4108     0     3        0.000000        1.272398        2.218115        4.255063
   4109     0     3        0.000000        9.380266        0.218486       12.088005
   4110     0     3        0.000000        0.232111        0.340860        4.615782
   4111     0     3        0.000000        1.249374        6.310363       12.436694
   4112     0     3        0.000000        8.469768        1.516347        5.658295
   4113     0     3        0.000000        1.427956        9.713130        0.114110
   4114     0     3        0.000000        7.610139        3.608343        0.394769
   4115     0     3        0.000000        0.433503        9.619519       10.003834
   4116     0     3        0.000000        0.332458        9.028794       12.563167
   4117     0     3        0.000000        0.406949        0.301192        0.112151
   4118     0     3        0.000000        3.066364        9.681459        0.461728
   4119     0     3        0.000000        0.621367        3.666124       11.809840
   4120     0     3        0.000000        3.899241        3.898235       12.355217
   4121     0     3        0.000000        4.557038        3.617377        8.877954
   4122     0     3        0.000000        8.093473        5.045333        8.418962
   4123     0     3        0.000000        8.164792        2.655472       14.192311
   4124     0     3        0.000000        8.411523        3.088975       13.583542
   4125     0     3        0.000000        4.663919        3.421433       12.029613
   4126     0     3        0.000000        2.585993        6.894746       12.001854
   4127     0     3        0.000000        2.874573        7.516113        1.867653
   4128     0     3        0.000000        0.255723        1.415354        8.104829
   4129     0     3        0.000000        7.977734        8.199458        0.341004
   4130     0     3        0.000000        2.010107        2.756496        6.128808
   4131     0     3        0.000000        7.558828        0.849969       14.201340
   4132     0     3        0.000000        2.820680        9.014761        2.450096
   4133     0     3        0.000000        1.690874        7.426284        7.392456
   4134     0     3        0.000000        0.180588        2.090202       12.866748
   4135     0     3        0.000000        7.699096        4.606101        2.992160
   4136     0     3        0.000000        3.019954        0.066666       10.049533
   4137     0     3        0.000000        4.187237        0.322389       12.314099
   4138     0     3        0.000000        9.252756        8.300123        9.433232
   4139     0     3        0.000000        9.465883        0.310230       13.843626
   4140     0     3        0.000000        3.296388        7.869058       15.203576
   4141     0     3        0.000000        2.172225        0.689738       13.627194
   4142     0     3        0.000000        3.703535        2.380612        9.509247
   4143     0     3        0.000000        8.323820        2.561201       12.853571
   4144     0     3        0.000000        6.365538        0.260297        4.223332
   4145     0     3        0.000000        7.000483        8.799047       15.837348
   4146     0     3        0.000000        3.281442        2.986284        0.353170
   4147     0     3        0.000000        0.977754        2.239040       13.633367
   4148     0     3        0.000000        6.873524        1.704923       14.129735
   4149     0     3        0.000000        3.545021        0.877071       15.632789
   4150     0     3        0.000000        9.488301        9.200891        3.730710
   4151     0     3        0.000000        0.161365        3.802067       13.393733
   4152     0     3        0.000000        9.993041        0.802550       11.472208
   4153     0     3        0.000000        9.891383        4.083992        0.250264
   4154     0     3        0.000000        0.112115        5.061746        3.832728
   4155     0     3        0.000000        8.632969        1.935269        6.560605
   4156     0     3        0.000000        7.464053        7.461059       14.562702
   4157     0     3        0.000000        1.554076        6.034105       11.443675
   4158     0     3        0.000000        1.324569        5.522406       10.165101
   4159     0     3        0.000000        3.656263        3.044189        3.071387
   4160     0     3        0.000000        1.789466        3.089978        0.973162
   4161     0     3        0.000000        1.945881        3.202093        9.071955
   4162     0     3        0.000000        4.341336        1.835062       12.168386
   4163     0     3        0.000000        8.441714        9.299115        8.106080
   4164     0     3        0.000000        7.543403        3.463310       12.088615
   4165     0     3        0.000000        0.970925        6.341955       14.579033
   4166     0     3        0.000000        7.324113        9.998218        3.449735
   4167     0     3        0.000000        9.243730        6.246471        8.578621
   4168     0     3        0.000000        4.965414        0.865807       13.696372
   4169     0     3        0.000000        1.489648        2.655273        2.640338
   4170     0     3        0.000000        2.097874        4.601155        7.763687
   4171     0     3        0.000000        7.767846        8.942491       10.699786
   4172     0     3        0.000000        0.439387        4.927607       15.119666
   4173     0     3        0.000000        7.994772        8.746235        7.147485
   4174     0     3        0.000000        1.584261        9.717160        1.294613
   4175     0     3        0.000000        0.696157        7.041273        1.291762
   4176     0     3        0.000000        2.852241        6.285003       11.286115
   4177     0     3        0.000000        8.213879        1.250417       12.671406
   4178     0     3        0.000000        6.774112        2.740065        0.919844
   4179     0     3        0.000000        8.424323        4.837939        8.281691
   4180     0     3        0.000000        3.276627        2.605785        6.589676
   4181     0     3        0.000000        9.963993        7.978872        2.404403
   4182     0     3        0.000000        5.950474        8.418259       10.288575
   4183     0     3        0.000000        9.867444        7.997292        7.830008
   4184     0     3        0.000000        0.676577        8.693449        3.096045
   4185     0     3        0.000000        1.483928        1.545691       13.152050
   4186     0     3        0.000000        8.537750        9.759570       15.152717
   4187     0     3        0.000000        2.208338        8.234632       15.446780
   4188     0     3        0.000000        6.326885        8.198625       12.212975
   4189     0     3        0.000000        4.259997        9.549365        3.943040
   4190     0     3        0.000000        9.436591        9.416809        0.738707
   4191     0     3        0.000000        4.330346        0.093386       14.648226
   4192     0     3        0.000000        6.265374        1.577313        1.121331
   4193     0     3        0.000000        4.485405        0.115063        0.736643
   4194     0     3        0.000000        3.955853        6.572442       11.190535
   4195     0     3        0.000000        6.166366        3.604722        3.123343
   4196     0     3        0.000000        3.214819        5.813060        0.298754
   4197     0     3        0.000000        2.869056        2.139946       13.416555
   4198     0     3        0.000000        0.502166        9.969583        4.055115
   4199     0     3        0.000000        6.553534        4.229580        3.334099
   4200     0     3        0.000000        9.017934        3.666172        2.400994
   4201     0     3        0.000000        9.479626        7.996518        2.550411
   4202     0     3        0.000000        8.634767        4.261892        5.074112
   4203     0     3        0.000000        9.335600        8.747297        5.258213
   4204     0     3        0.000000        9.796002        2.703151       15.774119
   4205     0     3        0.000000        6.790086        8.869517        5.541675
   4206     0     3        0.000000        8.742175        2.084336       14.842572
   4207     0     3        0.000000        8.928896        4.953392        2.266485
   4208     0     3        0.000000        9.848690        2.009092        8.985147
   4209     0     3        0.000000        1.932502        1.027026       14.851021
   4210     0     3        0.000000        3.433123        0.506652       11.645450
   4211     0     3        0.000000        5.027129        9.141419        2.464478
   4212     0     3        0.000000        8.198449        8.477019        0.460154
   4213     0     3        0.000000        1.484832        8.273020        4.785195
   4214     0     3        0.000000        1.343657        5.063106        2.976422
   4215     0     3        0.000000        4.807204        3.805281        6.311359
   4216     0     3        0.000000        5.500365        0.048421        6.965677
   4217     0     3        0.000000        6.886501        9.897110       10.180224
   4218     0     3        0.000000        2.502218        1.829612       11.823465
   4219     0     3        0.000000        1.784106        5.262735       12.634108
   4220     0     3        0.000000        9.062513        0.289864       11.260378
   4221     0     3        0.000000        0.602811        8.488314        8.823608
   4222     0     3        0.000000        0.890407        9.973146        6.060441
   4223     0     3        0.000000        3.881154        1.316803       14.161411
   4224     0     3        0.000000        9.686017        0.207818        8.624544
   4225     0     3        0.000000        8.584008        5.708182        8.702017
   4226     0     3        0.000000        2.937556        2.594684        8.537393
   4227     0     3        0.000000        9.300196        5.096901       11.464772
   4228     0     3        0.000000        1.623915        6.546331        1.930232
   4229     0     3        0.000000        7.138671        7.436738        1.887266
   4230     0     3        0.000000        0.926446        1.317892        3.994150
   4231     0     3        0.000000        9.777328        7.059309       13.792561
   4232     0     3        0.000000        3.262591        8.266889       11.409654
   4233     0     3        0.000000        8.598461        7.567085        3.564697
   4234     0     3        0.000000        5.763944        4.256947       14.574309
   4235     0     3        0.000000        8.192162        8.843125        8.083942
   4236     0     3        0.000000        0.910243        0.467041        2.558072
   4237     0     3        0.000000        2.116639        7.605711       14.456853
   4238     0     3        0.000000        3.296180        8.532157        0.565480
   4239     0     3        0.000000        5.792524        8.309485       11.860375
   4240     0     3        0.000000        4.412874        0.742975        6.652897
   4241     0     3        0.000000        3.241042        8.566805       15.179830
   4242     0     3        0.000000        7.777393        1.829396       12.406853
   4243     0     3        0.000000        4.908427        0.427857        8.514190
   4244     0     3        0.000000        1.297769        5.294206       14.221570
   4245     0     3        0.000000        2.896564        7.410845       10.390708
   4246     0     3        0.000000        1.932097        0.707024        8.042159
   4247     0     3        0.000000        2.285522        6.499548        5.337335
   4248     0     3        0.000000        9.698256        0.912422        6.526095
   4249     0     3        0.000000        3.856317        4.153464        4.232984
   4250     0     3        0.000000        3.343711        1.930856        7.160018
   4251     0     3        0.000000        1.097994        6.839283        7.844589
   4252     0     3        0.000000        5.997678        0.220950        8.765812
   4253     0     3        0.000000        4.419119        1.518719        1.236541
   4254     0     3        0.000000        3.307600        4.415283       13.093892
   4255     0     3        0.000000        9.801792        6.347379       14.225131
   4256     0     3        0.000000        4.828141        8.632901        8.624408
   4257     0     3        0.000000        8.163976        8.331158       10.084282
   4258     0     3        0.000000        2.242785        2.187474        0.729825
   4259     0     3        0.000000        9.363411        6.629179       14.762048
   4260     0     3        0.000000        4.266279        3.048542        5.123080
   4261     0     3        0.000000        5.360949        9.046220        5.476600
   4262     0     3        0.000000        0.839581        3.465338        7.906550
   4263     0     3        0.000000        1.612419        6.772938       14.971002
   4264     0     3        0.000000        9.796102        6.574730        9.126810
   4265     0     3        0.000000        8.686809        1.402871        6.939452
   4266     0     3        0.000000        4.077064        9.566847        4.269304
   4267     0     3        0.000000        0.379740        1.809632        7.769263
   4268     0     3        0.000000        0.835881        6.698032        0.619159
   4269     0     3        0.000000        3.222877        6.061443       11.225845
   4270     0     3        0.000000        2.449157        0.327722        0.103512
   4271     0     3        0.000000        5.651082        5.688670       14.577464
   4272     0     3        0.000000        9.073957        6.528251        4.122005
   4273     0     3        0.000000        4.015551        8.140670       14.958706
   4274     0     3        0.000000        3.372427        7.936772        9.478273
   4275     0     3        0.000000        9.076683        6.623581       11.722867
   4276     0     3        0.000000        3.413840        0.700645       11.029822
   4277     0     3        0.000000        6.082155        1.080385       13.925232
   4278     0     3        0.000000        0.937945        1.916265        8.642083
   4279     0     3        0.000000        1.324919        5.139143        2.340391
   4280     0     3        0.000000        8.341073        7.588300        2.864746
   4281     0     3        0.000000        8.405768        3.239382       11.966619
   4282     0     3        0.000000        7.516682        2.313338        6.411821
   4283     0     3        0.000000        0.092935        6.328889        3.436893
   4284     0     3        0.000000        9.442126        9.701316        0.135728
   4285     0     3        0.000000        5.366047        8.777999       10.733458
   4286     0     3        0.000000        2.692839        2.191840       11.854489
   4287     0     3        0.000000        9.586478        8.273995       13.583104
   4288     0     3        0.000000        8.289748        9.211940        0.649129
   4289     0     3        0.000000        3.691050        0.536859        8.871757
   4290     0     3        0.000000        5.153794        8.877932        5.013037
   4291     0     3        0.000000        6.944261        7.283699       10.196048
   4292     0     3        0.000000        8.430785        4.893317        8.023611
   4293     0     3        0.000000        0.578843        4.335444        7.545717
   4294     0     3        0.000000        0.663674        9.701491        5.590516
   4295     0     3        0.000000        7.372085        2.394330        9.097460
   4296     0     3        0.000000        4.781140        1.980808        6.335852
   4297     0     3        0.000000        3.270580        0.270556        5.074956
   4298     0     3        0.000000        9.221134        9.115400        4.138622
   4299     0     3        0.000000        2.354282        6.059661       15.792541
   4300     0     3        0.000000        8.726812        0.483058        7.473151
   4301     0     3        0.000000        7.412680        8.913844       15.302459
   4302     0     3        0.000000        2.427437        9.492687        6.239169
   4303     0     3        0.000000        7.143511        0.156361        5.761554
   4304     0     3        0.000000        0.637583        7.528445        9.592482
   4305     0     3        0.000000        0.283403        5.580166       13.194664
   4306     0     3        0.000000        3.455251        9.256451        3.533233
   4307     0     3        0.000000        7.163958        8.477586        2.117873
   4308     0     3        0.000000        9.750597        0.831868       11.813330
   4309     0     3        0.000000        9.620935        9.558680       12.586224
   4310     0     3        0.000000        3.855691        9.398797       10.036673
   4311     0     3        0.000000        7.755172        6.542308       10.286850
   4312     0     3        0.000000        1.356143        7.179891        6.332362
   4313     0     3        0.000000        7.351444        3.503387       10.027699
   4314     0     3        0.000000        7.106160        4.156596        0.661412
   4315     0     3        0.000000        2.355882        8.069185       11.109476
   4316     0     3        0.000000        9.136115        1.924876       10.147552
   4317     0     3        0.000000        5.409035        9.680048        4.615245
   4318     0     3        0.000000        1.838317        1.036191        0.103071
   4319     0     3        0.000000        5.796043        8.387635        5.708490
   4320     0     3        0.000000        2.063355        3.715189       11.767355
   4321     0     3        0.000000        4.596275        0.178058        5.054775
   4322     0     3        0.000000        4.981719        7.023431        8.009520
   4323     0     3        0.000000        1.925142        6.159546       11.089322
   4324     0     3        0.000000        8.267362        1.568581       10.577398
   4325     0     3        0.000000        1.151889        3.406898       12.235304
   4326     0     3        0.000000        1.216309        9.202941        9.655520
   4327     0     3        0.000000        4.784115        1.266296       15.599822
   4328     0     3        0.000000        2.138712        5.177128       11.262875
   4329     0     3        0.000000        6.735350        0.191889        0.177911
   4330     0     3        0.000000        8.897222        9.797821        7.930882
   4331     0     3        0.000000        5.833987        4.779540        3.168371
   4332     0     3        0.000000        0.839937        6.704682       13.023644
   4333     0     3        0.000000        4.381638        6.123933        4.984411
   4334     0     3        0.000000        2.028702        7.340242        3.709117
   4335     0     3        0.000000        8.063402        2.124357        5.735190
   4336     0     3        0.000000        7.813291        4.263068       14.018595
   4337     0     3        0.000000        4.852588        0.998418       14.325617
   4338     0     3        0.000000        4.963782        6.736407        5.986679
   4339     0     3        0.000000        0.209835        1.467616       13.310457
   4340     0     3        0.000000        2.190067        2.307553        8.037948
   4341     0     3        0.000000        0.329845        0.078317       15.993217
   4342     0     3        0.000000        0.038203        4.459954        9.791510
   4343     0     3        0.000000        9.056152        2.365350       15.755776
   4344     0     3        0.000000        7.817774        7.217938        1.353245
   4345     0     3        0.000000        6.771285        2.181721       12.131496
   4346     0     3        0.000000        0.512959        7.434754        5.145302
   4347     0     3        0.000000        2.371489        9.834656       11.185573
   4348     0     3        0.000000        7.395207        0.164501       11.310880
   4349     0     3        0.000000        7.390967        0.202704        2.446807
   4350     0     3        0.000000        6.970596        8.827823        4.111953
   4351     0     3        0.000000        2.554888        7.883975        7.896513
   4352     0     3        0.000000        3.248026        2.473033        6.935967
   4353     0     3        0.000000        0.830211        2.985992        2.831575
   4354     0     3        0.000000        8.729455        9.409935       14.798367
   4355     0     3        0.000000        5.720438        6.805142       15.061568
   4356     0     3        0.000000        4.318993        7.706770        4.755758
   4357     0     3        0.000000        4.906875        7.232255       15.494635
   4358     0     3        0.000000        9.842196        9.634503        8.617433
   4359     0     3        0.000000        1.995455        2.882529       12.574286
   4360     0     3        0.000000        8.100169        7.758766       12.613388
   4361     0     3        0.000000        6.763472        2.208659        6.557511
   4362     0     3        0.000000        5.793136        9.317390        9.602118
   4363     0     3        0.000000        8.765485        1.654294        1.085904
   4364     0     3        0.000000        0.565657        6.561169       12.657512
   4365     0     3        0.000000        0.249803        6.403365       12.072716
   4366     0     3        0.000000        5.635699        8.398819        0.684762
   4367     0     3        0.000000        2.222916        0.343914       13.420324
   4368     0     3        0.000000        9.516219        7.107386        0.954178
   4369     0     3        0.000000        3.614663        3.284338        8.951613
   4370     0     3        0.000000        1.909217        9.077474        7.859437
   4371     0     3        0.000000        7.910541        7.842959       10.506308
   4372     0     3        0.000000        8.589231        8.408615        5.004178
   4373     0     3        0.000000        6.500176        8.658419       15.249562
   4374     0     3        0.000000        4.473599        7.788745        4.254479
   4375     0     3        0.000000        8.614316        2.128294        8.781555
   4376     0     3        0.000000        0.513798        4.351211        9.331817
   4377     0     3        0.000000        8.901501        3.867430        4.703635
   4378     0     3        0.000000        9.497863        7.482093        9.958575
   4379     0     3        0.000000        5.092621        9.391310        8.482532
   4380     0     3        0.000000        0.004769        7.301851        5.031266
   4381     0     3        0.000000        9.698822        2.391257        0.338520
   4382     0     3        0.000000        9.229798        6.436880        7.209108
   4383     0     3        0.000000        7.159594        0.910479        3.671101
   4384     0     3        0.000000        9.818643        9.524796        7.076372
   4385     0     3        0.000000        5.307115        0.038594       14.038309
   4386     0     3        0.000000        1.139500        8.940095        4.226197
   4387     0     3        0.000000        4.079272        8.437958        0.197547
   4388     0     3        0.000000        0.303381        3.530578       15.223643
   4389     0     3        0.000000        8.749505        0.106558        4.332335
   4390     0     3        0.000000        0.302662        9.805380        8.158347
   4391     0     3        0.000000        0.514237        9.035179        2.457355
   4392     0     3        0.000000        7.314368        6.013415        3.153795
   4393     0     3        0.000000        1.737100        1.320530        3.215545
   4394     0     3        0.000000        0.511044        2.460030        1.519698
   4395     0     3        0.000000        3.275884        6.842684        4.669355
   4396     0     3        0.000000        2.790661        2.447648       10.325911
   4397     0     3        0.000000        9.607289        1.197153       10.496404
   4398     0     3        0.000000        2.314998        1.499815       10.185012
   4399     0     3        0.000000        7.413965        2.014052        8.641298
   4400     0     3        0.000000        8.949811        7.033982        2.552934
   4401     0     3        0.000000        1.396138        4.348350       12.174399
   4402     0     3        0.000000        3.367260        6.085451       14.287247
   4403     0     3        0.000000        6.326787        9.748912       12.686180
   4404     0     3        0.000000        8.632903        5.815457       11.550710
   4405     0     3        0.000000        1.646849        7.737743       15.865859
   4406     0     3        0.000000        8.012482        5.151708        3.088343
   4407     0     3        0.000000        2.617877        8.864917       15.036797
   4408     0     3        0.000000        1.547407        4.241893        9.591189
   4409     0     3        0.000000        2.936967        0.568679        9.189448
   4410     0     3        0.000000        0.865829        6.283235       14.029122
   4411     0     3        0.000000        2.856569        0.002734        0.010246
   4412     0     3        0.000000        1.272916        1.649583       12.390635
   4413     0     3        0.000000        1.189077        9.662066        4.633368
   4414     0     3        0.000000        2.083488        8.084237        3.992051
   4415     0     3        0.000000        5.396036        0.702114        2.175918
   4416     0     3        0.000000        4.794034        2.249521        8.962947
   4417     0     3        0.000000        0.788527        5.186487        9.872833
   4418     0     3        0.000000        5.300133        1.689692       11.791828
   4419     0     3        0.000000        9.883791        4.546261       11.796203
   4420     0     3        0.000000        9.890195        5.819176       14.435536
   4421     0     3        0.000000        7.634342        7.008253       13.894841
   4422     0     3        0.000000        0.530197        0.127545        2.815416
   4423     0     3        0.000000        7.527572        2.211034       15.750195
   4424     0     3        0.000000        0.022604        7.607069        0.873578
   4425     0     3        0.000000        1.382553        2.401103        4.472811
   4426     0     3        0.000000        3.154915        9.721562        6.454897
   4427     0     3        0.000000        0.351190        4.795681        9.743102
   4428     0     3        0.000000        9.373401        2.430023        4.956308
   4429     0     3        0.000000        8.057676        2.960220        5.160380
   4430     0     3        0.000000        9.817312        0.487792        8.698034
   4431     0     3        0.000000        9.661184        0.510396        4.869345
   4432     0     3        0.000000        0.207170        1.892949        8.711110
   4433     0     3        0.000000        3.002677        8.877344       13.814518
   4434     0     3        0.000000        0.984671        2.032259       13.369017
   4435     0     3        0.000000        0.742984        0.619493       13.252508
   4436     0     3        0.000000        1.013247        0.970683        4.925599
   4437     0     3        0.000000        7.102686        0.344084        8.813636
   4438     0     3        0.000000        0.200378        8.401760       13.549989
   4439     0     3        0.000000        3.425616        8.219072       14.330456
   4440     0     3        0.000000        8.861887        7.880255       15.147090
   4441     0     3        0.000000        1.905227        8.087425        2.175808
   4442     0     3        0.000000        7.349671        1.090102        0.379558
   4443     0     3        0.000000        4.339380        7.093754       15.856659
   4444     0     3        0.000000        7.716711        7.836738        0.847848
   4445     0     3        0.000000        5.999529        8.849985        2.400941
   4446     0     3        0.000000        9.078028        5.952671        2.951475
   4447     0     3        0.000000        3.055293        9.578665       13.544805
   4448     0     3        0.000000        2.011829        8.440551       10.153213
   4449     0     3        0.000000        1.478760        0.345778        7.093094
   4450     0     3        0.000000        2.838640        7.695449        8.837257
   4451     0     3        0.000000        5.345347        8.018573        7.506900
   4452     0     3        0.000000        5.785664        1.734813        2.205658
   4453     0     3        0.000000        7.286252        0.812841       11.729931
   4454     0     3        0.000000        9.130923        5.399391        5.574810
   4455     0     3        0.000000        9.377355        8.454684        4.900673
   4456     0     3        0.000000        7.842858        0.466513        2.405555
   4457     0     3        0.000000        4.188616        1.945273        2.958801
   4458     0     3        0.000000        8.621800        4.783913       15.271519
   4459     0     3        0.000000        1.743143        3.205124        1.987945
   4460     0     3        0.000000        6.434956        8.460883       11.164399
   4461     0     3        0.000000        8.963507        4.246547       13.940099
   4462     0     3        0.000000        0.342043        1.532798       15.240644
   4463     0     3        0.000000        7.673250        0.663722        7.879670
   4464     0     3        0.000000        1.157507        0.041077        5.407165
   4465     0     3        0.000000        4.220427        7.883935        6.153586
   4466     0     3        0.000000        7.573150        0.694351        0.920284
   4467     0     3        0.000000        0.341742        6.582580        2.624126
   4468     0     3        0.000000        1.584207        3.017536        0.161539
   4469     0     3        0.000000        8.561956        1.981043        6.956013
   4470     0     3        0.000000        7.274518        2.323087        9.408491
   4471     0     3        0.000000        6.799921        9.996337       10.470446
   4472     0     3        0.000000        1.724714        1.153844       10.536169
   4473     0     3        0.000000        8.950183        1.098170       10.466546
   4474     0     3        0.000000        4.741447        8.671320       11.577508
   4475     0     3        0.000000        9.840128        3.551593        9.567401
   4476     0     3        0.000000        5.720435        0.351514        9.561540
   4477     0     3        0.000000        2.264463        2.076228       11.407690
   4478     0     3        0.000000        8.849569        7.180420        4.006524
   4479     0     3        0.000000        3.318609        6.130603        5.763596
   4480     0     3        0.000000        9.860200        0.872051        3.637709
   4481     0     3        0.000000        9.171523        9.940254        6.709837
   4482     0     3        0.000000        7.829482        5.331912        3.054026
   4483     0     3        0.000000        9.504978        0.824532       13.097345
   4484     0     3        0.000000        3.161517        0.664660        2.779893
   4485     0     3        0.000000        9.141142        6.385095        3.342315
   4486     0     3        0.000000        5.117105        8.649558        6.664280
   4487     0     3        0.000000        2.246911        7.499127        2.152952
   4488     0     3        0.000000        4.750989        0.817735       11.961918
   4489     0     3        0.000000        8.353237        0.677936       13.357199
   4490     0     3        0.000000        0.626804        7.774079        7.259079
   4491     0     3        0.000000        8.689542        6.945602        7.163487
   4492     0     3        0.000000        2.977796        7.441578        2.077254
   4493     0     3        0.000000        6.804177        1.699826       10.132698
   4494     0     3        0.000000        0.969352        3.946737        6.131300
   4495     0     3        0.000000        2.314947        8.697726        7.439677
   4496     0     3        0.000000        9.791145        7.050963        8.524375
   4497     0     3        0.000000        8.139395        7.677767        4.962901
   4498     0     3        0.000000        2.676319        6.367309        0.075864
   4499     0     3        0.000000        7.153499        9.250499        7.715999
   4500     0     3        0.000000        6.962590        4.042455       14.564097
   4501     0     3        0.000000        7.596214        7.020251       10.470623
   4502     0     3        0.000000        8.894497        1.735481        5.002976
   4503     0     3        0.000000        6.577875        8.539657        7.722697
   4504     0     3        0.000000        2.910811        9.509009       14.037477
   4505     0     3        0.000000        6.742874        1.823956       11.953838
   4506     0     3        0.000000        1.392672        1.615101        7.235379
   4507     0     3        0.000000        6.720406        9.754496        3.519806
   4508     0     3        0.000000        9.822220        2.430815       13.707500
   4509     0     3        0.000000        9.869635        9.584314       12.508298
   4510     0     3        0.000000        0.338834        3.037614        0.985396
   4511     0     3        0.000000        3.465694        9.615490       14.648847
   4512     0     3        0.000000        8.292380        2.526301       13.863261
   4513     0     3        0.000000        7.065803        9.269175        0.781590
   4514     0     3        0.000000        4.536952        0.661848        3.365752
   4515     0     3        0.000000        9.059064        7.382254        2.972945
   4516     0     3        0.000000        1.258943        7.204474        6.862249
   4517     0     3        0.000000        9.826130        7.074109        6.197151
   4518     0     3        0.000000        7.643817        1.766243        0.672196
   4519     0     3        0.000000        9.503958        5.560938        7.301184
   4520     0     3        0.000000        8.384349        5.899772       12.161367
   4521     0     3        0.000000        9.000222        9.365466       11.546151
   4522     0     3        0.000000        8.155751        7.657847       15.588233
   4523     0     3        0.000000        6.820290        4.723650       14.418914
   4524     0     3        0.000000        7.308784        9.260602       15.477870
   4525     0     3        0.000000        9.412378        8.319666       11.289476
   4526     0     3        0.000000        1.270469        9.578609        6.816634
   4527     0     3        0.000000        5.559374        9.404739        2.135208
   4528     0     3        0.000000        9.432594        7.048556        4.961196
   4529     0     3        0.000000        9.852716        6.552513       13.858696
   4530     0     3        0.000000        2.016811        3.937084        6.283077
   4531     0     3        0.000000        9.233155        2.092836        2.535632
   4532     0     3        0.000000        8.975801        8.913125       10.093471
   4533     0     3        0.000000        7.987622        6.221909        8.910434
   4534     0     3        0.000000        8.977610        2.464131        4.595256
   4535     0     3        0.000000        0.312114        1.896724       15.872946
   4536     0     3        0.000000        3.412862        1.749440       10.356967
   4537     0     3        0.000000        2.074547        6.165397        2.255948
   4538     0     3        0.000000        6.636004        8.182208        8.555283
   4539     0     3        0.000000        0.562927        7.415363       11.903820
   4540     0     3        0.000000        2.147697        6.391164       10.164821
   4541     0     3        0.000000        8.456116        4.378787        4.119875
   4542     0     3        0.000000        4.025138        2.040077       13.134735
   4543     0     3        0.000000        7.913825        6.757291        8.182345
   4544     0     3        0.000000        1.381121        5.734900       12.124953
   4545     0     3        0.000000        4.173747        9.459877        1.958817
   4546     0     3        0.000000        0.646852        1.534424       11.823452
   4547     0     3        0.000000        2.056819        8.170428        8.914984
   4548     0     3        0.000000        7.403871        8.733355        4.779566
   4549     0     3        0.000000        4.843758        0.881052       15.005429
   4550     0     3        0.000000        1.196771        9.337168        6.011487
   4551     0     3        0.000000        1.980902        1.276131        4.087276
   4552     0     3        0.000000        7.094868        2.657253       13.263116
   4553     0     3        0.000000        4.147784        1.084156        6.074143
   4554     0     3        0.000000        5.372044        1.731008        8.529220
   4555     0     3        0.000000        8.333567        1.191698        3.575272
   4556     0     3        0.000000        1.320796        6.035457        4.984955
   4557     0     3        0.000000        0.699189        7.232228        3.924424
   4558     0     3        0.000000        4.456368        1.003921        9.304114
   4559     0     3        0.000000        0.253625        2.984824       11.345924
   4560     0     3        0.000000        2.808173        0.079691       15.597528
   4561     0     3        0.000000        1.097621        4.752655       10.654183
   4562     0     3        0.000000        5.434083        8.900439       12.388833
   4563     0     3        0.000000        9.230422        4.272483       15.158446
   4564     0     3        0.000000        8.062375        5.367752        7.125687
   4565     0     3        0.000000        0.296920        6.688547        0.782418
   4566     0     3        0.000000        3.412517        7.387736       12.353982
   4567     0     3        0.000000        5.865282        1.844104       13.960256
   4568     0     3        0.000000        1.680354        2.097729        2.735974
   4569     0     3        0.000000        8.771556        4.905902        2.863481
   4570     0     3        0.000000        8.520011        6.003523       10.467729
   4571     0     3        0.000000        5.178875        1.437606        8.708432
   4572     0     3        0.000000        2.921896        0.668028       15.544405
   4573     0     3        0.000000        2.395925        5.229213       10.799101
   4574     0     3        0.000000        0.111335        3.588508       14.089179
   4575     0     3        0.000000        0.600346        7.001026        9.909557
   4576     0     3        0.000000        8.321585        2.866308       12.860124
   4577     0     3        0.000000        7.046745        4.546662        0.216491
   4578     0     3        0.000000        8.756729        3.318218        8.065934
   4579     0     3        0.000000        0.546404        1.838229        1.671571
   4580     0     3        0.000000        2.531505        9.939000        5.040585
   4581     0     3        0.000000        2.246758        2.334925       13.407326
   4582     0     3        0.000000        8.996195        7.992705        2.673867
   4583     0     3        0.000000        1.113385        8.104040        8.415480
   4584     0     3        0.000000        9.919122        8.704386        3.617121
   4585     0     3        0.000000        4.285479        2.829444        4.787021
   4586     0     3        0.000000        9.326688        3.375848        7.728187
   4587     0     3        0.000000        0.371420        0.464583        2.955555
   4588     0     3        0.000000        2.853757        2.996088        2.857955
   4589     0     3        0.000000        1.314543        5.271548       14.275646
   4590     0     3        0.000000        3.575244        1.384143        9.517199
   4591     0     3        0.000000        8.702252        5.534315        0.033543
   4592     0     3        0.000000        8.375923        9.819794        4.560654
   4593     0     3        0.000000        1.367811        9.146482        9.962012
   4594     0     3        0.000000        6.197928        9.517902       10.705345
   4595     0     3        0.000000        8.045149        2.371659       15.499086
   4596     0     3        0.000000        9.831371        8.375782        7.887639
   4597     0     3        0.000000        3.952518        2.759484       14.670104
   4598     0     3        0.000000        6.066371        8.814352        7.233985
   4599     0     3        0.000000        6.284264        0.128895       15.668462
   4600     0     3        0.000000        1.154791        2.406391       10.737996
   4601     0     3        0.000000        1.175756        0.782313       10.449666
   4602     0     3        0.000000        4.026165        2.150124        9.084038
   4603     0     3        0.000000        0.252422        8.348052        8.312681
   4604     0     3        0.000000        6.630192        6.224572        9.508587
   4605     0     3        0.000000        1.559966        0.177091       13.923761
   4606     0     3        0.000000        0.728781        6.243461       12.026724
   4607     0     3        0.000000        6.219742        8.889059        6.009802
   4608     0     3        0.000000        2.930990        0.064815        7.261504
   4609     0     3        0.000000        9.462031        4.090980       10.701702
   4610     0     3        0.000000        0.334981        1.286665        2.287706
   4611     0     3        0.000000        7.902065        7.916857       12.247021
   4612     0     3        0.000000        3.844933        9.476823       12.530366
   4613     0     3        0.000000        2.547283        0.205603        6.519905
   4614     0     3        0.000000        0.063986        5.455625       10.564265
   4615     0     3        0.000000        7.709583        0.498436        6.939092
   4616     0     3        0.000000        9.059318        6.718178        5.161586
   4617     0     3        0.000000        2.815444        9.649168        5.265290
   4618     0     3        0.000000        7.353884        9.111199       11.810857
   4619     0     3        0.000000        9.079063        4.585734        4.818964
   4620     0     3        0.000000        0.508879        2.487800        1.485935
   4621     0     3        0.000000        8.163268        6.332732        0.648851
   4622     0     3        0.000000        5.994747        8.880015        0.977817
   4623     0     3        0.000000        0.069687        8.944001        9.706817
   4624     0     3        0.000000        1.009285        5.712902        5.253399
   4625     0     3        0.000000        4.235276        8.528346        4.692067
   4626     0     3        0.000000        7.526082        5.882230        3.269985
   4627     0     3        0.000000        4.907868        9.924678       10.071191
   4628     0     3        0.000000        6.633056        9.003741        1.408365
   4629     0     3        0.000000        9.644908        9.512621        5.388845
   4630     0     3        0.000000        0.573618        7.675889       15.521216
   4631     0     3        0.000000        0.979150        3.670635       13.729241
   4632     0     3        0.000000        1.590285        3.740323       12.039642
   4633     0     3        0.000000        7.657046        0.412675        6.685376
   4634     0     3        0.000000        4.222242        1.421960       15.826019
   4635     0     3        0.000000        0.438158        3.183319        6.882941
   4636     0     3        0.000000        2.481899        8.091187        6.762426
   4637     0     3        0.000000        8.776393        4.724242        5.168412
   4638     0     3        0.000000        9.656622        4.369151        4.388605
   4639     0     3        0.000000        3.024650        4.942768        0.670026
   4640     0     3        0.000000        1.306185        7.512204       12.527559
   4641     0     3        0.000000        8.830962        5.169250       13.187839
   4642     0     3        0.000000        3.009322        9.391492       15.462976
   4643     0     3        0.000000        1.320191        7.335267       13.607864
   4644     0     3        0.000000        5.622029        9.817166       10.553763
   4645     0     3        0.000000        9.848545        8.593559        2.112551
   4646     0     3        0.000000        3.078802        8.250181        9.103192
   4647     0     3        0.000000        5.821680        1.274830        1.011621
   4648     0     3        0.000000        0.329849        5.306425        6.506216
   4649     0     3        0.000000        6.066333        0.047292        8.838776
   4650     0     3        0.000000        1.387929        1.367483        4.575202
   4651     0     3        0.000000        9.892844        6.989512        4.282667
   4652     0     3        0.000000        7.809291        9.916860       15.232651
   4653     0     3        0.000000        4.131049        1.978987        7.672763
   4654     0     3        0.000000        0.685230        2.308836        0.163043
   4655     0     3        0.000000        4.751616        0.468409        6.782861
   4656     0     3        0.000000        2.614377        2.936715        2.293262
   4657     0     3        0.000000        8.138611        4.324644        4.481234
   4658     0     3        0.000000        0.998113        4.217488       15.664454
   4659     0     3        0.000000        3.674780        0.706434       10.605347
   4660     0     3        0.000000        4.945006        8.515725       10.472323
   4661     0     3        0.000000        0.056126        6.830790       10.514505
   4662     0     3        0.000000        0.158028        1.582406       11.263960
   4663     0     3        0.000000        4.397317        5.569656        6.256571
   4664     0     3        0.000000        5.783313        8.184032       10.955315
   4665     0     3        0.000000        7.216602        6.322644        1.874745
   4666     0     3        0.000000        0.017373        7.320756        8.622725
   4667     0     3        0.000000        9.807657        0.995536        9.753020
   4668     0     3        0.000000        6.435999        5.940542        7.378180
   4669     0     3        0.000000        2.981200        0.405954       10.601397
   4670     0     3        0.000000        9.527672        5.722730       15.363557
   4671     0     3        0.000000        3.139212        0.278075       10.806855
   4672     0     3        0.000000        7.049569        6.061388        7.901307
   4673     0     3        0.000000        5.068356        3.295363       13.730748
   4674     0     3        0.000000        0.457559        3.103021       15.323605
   4675     0     3        0.000000        6.553197        9.539020        8.828473
   4676     0     3        0.000000        1.164559        2.520220        9.478000
   4677     0     3        0.000000        7.790433        7.785163        2.544566
   4678     0     3        0.000000        0.561866        7.312835       11.700935
   4679     0     3        0.000000        0.164089        3.412072        5.110148
   4680     0     3        0.000000        1.348717        6.551284        5.555068
   4681     0     3        0.000000        8.103002        3.600853       15.253289
   4682     0     3        0.000000        3.041319        7.497494        4.498073
   4683     0     3        0.000000        4.302280        2.565850        9.770655
   4684     0     3        0.000000        2.461251        9.576606       13.997919
   4685     0     3        0.000000        7.979046        0.741166        2.030271
   4686     0     3        0.000000        3.902796        8.531598       14.486531
   4687     0     3        0.000000        5.493150        9.093464       10.187067
   4688     0     3        0.000000        2.806234        9.257552       15.646382
   4689     0     3        0.000000        6.000076        0.606270       10.128437
   4690     0     3        0.000000        9.471994        8.709272       15.889802
   4691     0     3        0.000000        9.005300        1.750591       11.885792
   4692     0     3        0.000000        1.816596        6.052870       15.991152
   4693     0     3        0.000000        7.923255        8.936868        4.828606
   4694     0     3        0.000000        7.132935        1.398118        4.151176
   4695     0     3        0.000000        5.881634        9.377164        5.337041
   4696     0     3        0.000000        6.204636        8.773110        1.537141
   4697     0     3        0.000000        2.571553        1.579343        0.349224
   4698     0     3        0.000000        2.350541        7.579420        1.319256
   4699     0     3        0.000000        8.680814        7.051414       15.254090
   4700     0     3        0.000000        8.611940        6.056713        2.055035
   4701     0     3        0.000000        6.035030        5.796564       10.038616
   4702     0     3        0.000000        9.052909        2.929499       12.275606
   4703     0     3        0.000000        1.647394        8.811133       11.279068
   4704     0     3        0.000000        4.983045        5.961687        0.527004
   4705     0     3        0.000000        6.850294        2.166324       14.563980
   4706     0     3        0.000000        7.811007        4.737876        1.090929
   4707     0     3        0.000000        8.029272        7.088418       13.218001
   4708     0     3        0.000000        8.853807        5.769232        8.500262
   4709     0     3        0.000000        8.387614        4.381172        2.191004
   4710     0     3        0.000000        9.672011        0.421733       14.788298
   4711     0     3        0.000000        3.283414        5.509671       12.749998
   4712     0     3        0.000000        0.955667        7.157065       10.847812
   4713     0     3        0.000000        8.005085        2.140110        4.386512
   4714     0     3        0.000000        8.334462        8.990404        7.852629
   4715     0     3        0.000000        8.118781        4.830683       10.774700
   4716     0     3        0.000000        1.692695        2.072103       11.015347
   4717     0     3        0.000000        3.062072        1.744114       11.690119
   4718     0     3        0.000000        2.304758        8.753392        6.020939
   4719     0     3        0.000000        7.344008        2.036806       14.836413
   4720     0     3        0.000000        2.092640        0.997558       13.711893
   4721     0     3        0.000000        4.834209        9.332020       12.096539
   4722     0     3        0.000000        9.742103        6.768970        6.978796
   4723     0     3        0.000000        9.387872        4.887750       14.707888
   4724     0     3        0.000000        6.122060        1.267781        4.603072
   4725     0     3        0.000000        8.625479        2.960476        7.918437
   4726     0     3        0.000000        2.816396        8.327307        8.714446
   4727     0     3        0.000000        5.852241        0.984072        0.761292
   4728     0     3        0.000000        2.282064        3.076712        2.357384
   4729     0     3        0.000000        0.851997        7.910922        1.288616
   4730     0     3        0.000000        8.412334        7.653024       12.118967
   4731     0     3        0.000000        1.966512        3.162957        5.967818
   4732     0     3        0.000000        9.792455        7.298508        4.340658
   4733     0     3        0.000000        6.485592        0.114903        1.664348
   4734     0     3        0.000000        1.932121        6.694386       10.738452
   4735     0     3        0.000000        9.415455        2.546627       12.312968
   4736     0     3        0.000000        9.891262        4.828691        1.235708
   4737     0     3        0.000000        1.364627        5.680688       13.893182
   4738     0     3        0.000000        9.744366        6.867105        5.403456
   4739     0     3        0.000000        2.206471        8.833617       10.464187
   4740     0     3        0.000000        2.626720        3.469504        9.003297
   4741     0     3        0.000000        5.339631        9.955096        9.187142
   4742     0     3        0.000000        6.379849        1.887216        3.898160
   4743     0     3        0.000000        3.091382        1.302671        7.972763
   4744     0     3        0.000000        0.786987        1.193934       15.698669
   4745     0     3        0.000000        1.559304        2.558561        8.787770
   4746     0     3        0.000000        0.242543        4.728573       15.336606
   4747     0     3        0.000000        9.955966        6.679410        8.457760
   4748     0     3        0.000000        6.496083        2.615768       14.341038
   4749     0     3        0.000000        0.451697        0.582120        3.820398
   4750     0     3        0.000000        6.193661        6.961969        6.839944
   4751     0     3        0.000000        8.630011        0.053351        8.924218
   4752     0     3        0.000000        3.612988        0.840338       10.834512
   4753     0     3        0.000000        3.424656        2.399643       14.928209
   4754     0     3        0.000000        8.917012        2.642186        6.493925
   4755     0     3        0.000000        8.502391        9.220992       13.650627
   4756     0     3        0.000000        4.954874        9.176959        8.337684
   4757     0     3        0.000000        0.240974        5.673042       12.522913
   4758     0     3        0.000000        9.204123        0.497678        4.910895
   4759     0     3        0.000000        1.636776        0.949375        5.842287
   4760     0     3        0.000000        8.299489        5.773046        1.066799
   4761     0     3        0.000000        3.877125        9.386034        2.411341
   4762     0     3        0.000000        0.648695        2.810690        6.250769
   4763     0     3        0.000000        9.978826        1.727702       10.478267
   4764     0     3        0.000000        4.037529        0.230093        9.231855
   4765     0     3        0.000000        2.569171        5.184967        7.914989
   4766     0     3        0.000000        8.676354        6.266840        3.307142
   4767     0     3        0.000000        2.327783        0.291365       14.735999
   4768     0     3        0.000000        2.941181        8.590854        7.972873
   4769     0     3        0.000000        9.021750        3.095501       14.251955
   4770     0     3        0.000000        5.570667        7.133030       14.620104
   4771     0     3        0.000000        1.340577        9.702201        6.916051
   4772     0     3        0.000000        8.024944        1.765823        1.032604
   4773     0     3        0.000000        0.091908        4.093606        1.498788
   4774     0     3        0.000000        9.301907        7.034788       15.244154
   4775     0     3        0.000000        4.284953        0.642719        3.192921
   4776     0     3        0.000000        8.654033        5.757738        8.179601
   4777     0     3        0.000000        4.741275        0.350155        8.545249
   4778     0     3        0.000000        3.878840        1.690732        8.068771
   4779     0     3        0.000000        8.201372        7.978176        4.040650
   4780     0     3        0.000000        7.949845        4.885532        8.983801
   4781     0     3        0.000000        2.328382        2.910476       11.809118
   4782     0     3        0.000000        2.973760        3.002383        2.358888
   4783     0     3        0.000000        3.910502        2.304290       13.614548
   4784     0     3        0.000000        3.438098        6.589243       14.642897
   4785     0     3        0.000000        0.545925        1.077079       15.502459
   4786     0     3        0.000000        8.753676        5.818354        0.062707
   4787     0     3        0.000000        4.094457        9.697193        2.767877
   4788     0     3        0.000000        9.137438        7.898565       15.532959
   4789     0     3        0.000000        1.662845        5.848410        7.349810
   4790     0     3        0.000000        7.277720        8.176792       12.006571
   4791     0     3        0.000000        4.658419        1.150551        0.810385
   4792     0     3        0.000000        4.641816        8.499151       15.040038
   4793     0     3        0.000000        8.703175        4.478750        9.152605
   4794     0     3        0.000000        8.392212        3.232426        2.461971
   4795     0     3        0.000000        8.431404        7.326882        1.977480
   4796     0     3        0.000000        0.161327        6.464321       14.615184
   4797     0     3        0.000000        9.869426        8.127165        7.972639
   4798     0     3        0.000000        1.967165        0.063305        6.896388
   4799     0     3        0.000000        5.284436        0.837844       12.592715
   4800     0     3        0.000000        9.327759        3.334646       10.051236

Bonds

      1      1     1     2
      2      1     2     3
      3      1     3     4
      4      1     4     5
      5      1     5     6
      6      1     6     7
      7      1     7     8
      8      1     8     9
      9      1     9    10
     10      1    11    12
     11      1    12    13
     12      1    13    14
     13      1    14    15
     14      1    15    16
     15      1    16    17
     16      1    17    18
     17      1    18    19
     18      1    19    20
     19      1    21    22
     20      1    22    23
     21      1    23    24
     22      1    24    25
     23      1    25    26
     24      1    26    27
     25      1    27    28
     26      1    28    29
     27      1    29    30
     28      1    31    32
     29      1    32    33
     30      1    33    34
     31      1    34    35
     32      1    35    36
     33      1    36    37
     34      1    37    38
     35      1    38    39
     36      1    39    40
     37      1    41    42
     38      1    42    43
     39      1    43    44
     40      1    44    45
     41      1    45    46
     42      1    46    47
     43      1    47    48
     44      1    48    49
     45      1    49    50
     46      1    51    52
     47      1    52    53
     48      1    53    54
     49      1    54    55
     50      1    55    56
     51      1    56    57
     52      1    57    58
     53      1    58    59
     54      1    59    60
     55      1    61    62
     56      1    62    63
     57      1    63    64
     58      1    64    65
     59      1    65    66
     60      1    66    67
     61      1    67    68
     62      1    68    69
     63      1    69    70
     64      1    71    72
     65      1    72    73
     66      1    73    74
     67      1    74    75
     68      1    75    76
     69      1    76    77
     70      1    77    78
     71      1    78    79
     72      1    79    80
     73      1    81    82
     74      1    82    83
     75      1    83    84
     76      1    84    85
     77      1    85    86
     78      1    86    87
     79      1    87    88
     80      1    88    89
     81      1    89    90
     82      1    91    92
     83      1    92    93
     84      1    93    94
     85      1    94    95
     86      1    95    96
     87      1    96    97
     88      1    97    98
     89      1    98    99
     90      1    99   100
     91      1   101   102
     92      1   102   103
     93      1   103   104
     94      1   104   105
     95      1   105   106
     96      1   106   107
     97      1   107   108
     98      1   108   109
     99      1   109   110
    100      1   111   112
    101      1   112   113
    102      1   113   114
    103      1   114   115
    104      1   115   116
    105      1   116   117
    106      1   117   118
    107      1   118   119
    108      1   119   120
    109      1   121   122
    110      1   122   123
    111      1   123   124
    112      1   124   125
    113      1   125   126
    114      1   126   127
    115      1   127   128
    116      1   128   129
    117      1   129   130
    118      1   131   132
    119      1   132   133
    120      1   133   134
    121      1   134   135
    122      1   135   136
    123      1   136   137
    124      1   137   138
    125      1   138   139
    126      1   139   140
    127      1   141   142
    128      1   142   143
    129      1   143   144
    130      1   144   145
    131      1   145   146
    132      1   146   147
    133      1   147   148
    134      1   148   149
    135      1   149   150
    136      1   151   152
    137      1   152   153
    138      1   153   154
    139      1   154   155
    140      1   155   156
    141      1   156   157
    142      1   157   158
    143      1   158   159
    144      1   159   160
    145      1   161   162
    146      1   162   163
    147      1   163   164
    148      1   164   165
    149      1   165   166
    150      1   166   167
    151      1   167   168
    152      1   168   169
    153      1   169   170
    154      1   171   172
    155      1   172   173
    156      1   173   174
    157      1   174   175
    158      1   175   176
    159      1   176   177
    160      1   177   178
    161      1   178   179
    162      1   179   180
    163      1   181   182
    164      1   182   183
    165      1   183   184
    166      1   184   185
    167      1   185   186
    168      1   186   187
    169      1   187   188
    170      1   188   189
    171      1   189   190
    172      1   191   192
    173      1   192   193
    174      1   193   194
    175      1   194   195
    176      1   195   196
    177      1   196   197
    178      1   197   198
    179      1   198   199
    180      1   199   200
    181      1   201   202
    182      1   202   203
    183      1   203   204
    184      1   204   205
    185      1   205   206
    186      1   206   207
    187      1   207   208
    188      1   208   209
    189      1   209   210
    190      1   211   212
    191      1   212   213
    192      1   213   214
    193      1   214   215
    194      1   215   216
    195      1   216   217
    196      1   217   218
    197      1   218   219
    198      1   219   220
    199      1   221   222
    200      1   222   223
    201      1   223   224
    202      1   224   225
    203      1   225   226
    204      1   226   227
    205      1   227   228
    206      1   228   229
    207      1   229   230
    208      1   231   232
    209      1   232   233
    210      1   233   234
    211      1   234   235
    212      1   235   236
    213      1   236   237
    214      1   237   238
    215      1   238   239
    216      1   239   240
    217      1   241   242
    218      1   242   243
    219      1   243   244
    220      1   244   245
    221      1   245   246
    222      1   246   247
    223      1   247   248
    224      1   248   249
    225      1   249   250
    226      1   251   252
    227      1   252   253
    228      1   253   254
    229      1   254   255
    230      1   255   256
    231      1   256   257
    232      1   257   258
    233      1   258   259
    234      1   259   260
    235      1   261   262
    236      1   262   263
    237      1   263   264
    238      1   264   265
    239      1   265   266
    240      1   266   267
    241      1   267   268
    242      1   268   269
    243      1   269   270
    244      1   271   272
    245      1   272   273
    246      1   273   274
    247      1   274   275
    248      1   275   276
    249      1   276   277
    250      1   277   278
    251      1   278   279
    252      1   279   280
    253      1   281   282
    254      1   282   283
    255      1   283   284
    256      1   284   285
    257      1   285   286
    258      1   286   287
    259      1   287   288
    260      1   288   289
    261      1   289   290
    262      1   291   292
    263      1   292   293
    264      1   293   294
    265      1   294   295
    266      1   295   296
    267      1   296   297
    268      1   297   298
    269      1   298   299
    270      1   299   300
    271      1   301   302
    272      1   302   303
    273      1   303   304
    274      1   304   305
    275      1   305   306
    276      1   306   307
    277      1   307   308
    278      1   308   309
    279      1   309   310
    280      1   311   312
    281      1   312   313
    282      1   313   314
    283      1   314   315
    284      1   315   316
    285      1   316   317
    286      1   317   318
    287      1   318   319
    288      1   319   320
    289      1   321   322
    290      1   322   323
    291      1   323   324
    292      1   324   325
    293      1   325   326
    294      1   326   327
    295      1   327   328
    296      1   328   329
    297      1   329   330
    298      1   331   332
    299      1   332   333
    300      1   333   334
    301      1   334   335
    302      1   335   336
    303      1   336   337
    304      1   337   338
    305      1   338   339
    306      1   339   340
    307      1   341   342
    308      1   342   343
    309      1   343   344
    310      1   344   345
    311      1   345   346
    312      1   346   347
    313      1   347   348
    314      1   348   349
    315      1   349   350
    316      1   351   352
    317      1   352   353
    318      1   353   354
    319      1   354   355
    320      1   355   356
    321      1   356   357
    322      1   357   358
    323      1   358   359
    324      1   359   360
    325      1   361   362
    326      1   362   363
    327      1   363   364
    328      1   364   365
    329      1   365   366
    330      1   366   367
    331      1   367   368
    332      1   368   369
    333      1   369   370
    334      1   371   372
    335      1   372   373
    336      1   373   374
    337      1   374   375
    338      1   375   376
    339      1   376   377
    340      1   377   378
    341      1   378   379
    342      1   379   380
    343      1   381   382
    344      1   382   383
    345      1   383   384
    346      1   384   385
    347      1   385   386
    348      1   386   387
    349      1   387   388
    350      1   388   389
    351      1   389   390
    352      1   391   392
    353      1   392   393
    354      1   393   394
    355      1   394   395
    356      1   395   396
    357      1   396   397
    358      1   397   398
    359      1   398   399
    360      1   399   400
    361      1   401   402
    362      1   402   403
    363      1   403   404
    364      1   404   405
    365      1   405   406
    366      1   406   407
    367      1   407   408
    368      1   408   409
    369      1   409   410
    370      1   411   412
    371      1   412   413
    372      1   413   414
    373      1   414   415
    374      1   415   416
    375      1   416   417
    376      1   417   418
    377      1   418   419
    378      1   419   420
    379      1   421   422
    380      1   422   423
    381      1   423   424
    382      1   424   425
    383      1   425   426
    384      1   426   427
    385      1   427   428
    386      1   428   429
    387      1   429   430
    388      1   431   432
    389      1   432   433
    390      1   433   434
    391      1   434   435
    392      1   435   436
    393      1   436   437
    394      1   437   438
    395      1   438   439
    396      1   439   440
    397      1   441   442
    398      1   442   443
    399      1   443   444
    400      1   444   445
    401      1   445   446
    402      1   446   447
    403      1   447   448
    404      1   448   449
    405      1   449   450
    406      1   451   452
    407      1   452   453
    408      1   453   454
    409      1   454   455
    410      1   455   456
    411      1   456   457
    412      1   457   458
    413      1   458   459
    414      1   459   460
    415      1   461   462
    416      1   462   463
    417      1   463   464
    418      1   464   465
    419      1   465   466
    420      1   466   467
    421      1   467   468
    422      1   468   469
    423      1   469   470
    424      1   471   472
    425      1   472   473
    426      1   473   474
    427      1   474   475
    428      1   475   476
    429      1   476   477
    430      1   477   478
    431      1   478   479
    432      1   479   480
    433      1   481   482
    434      1   482   483
    435      1   483   484
    436      1   484   485
    437      1   485   486
    438      1   486   487
    439      1   487   488
    440      1   488   489
    441      1   489   490
    442      1   491   492
    443      1   492   493
    444      1   493   494
    445      1   494   495
    446      1   495   496
    447      1   496   497
    448      1   497   498
    449      1   498   499
    450      1   499   500
    451      1   501   502
    452      1   502   503
    453      1   503   504
    454      1   504   505
    455      1   505   506
    456      1   506   507
    457      1   507   508
    458      1   508   509
    459      1   509   510
    460      1   511   512
    461      1   512   513
    462      1   513   514
    463      1   514   515
    464      1   515   516
    465      1   516   517
    466      1   517   518
    467      1   518   519
    468      1   519   520
    469      1   521   522
    470      1   522   523
    471      1   523   524
    472      1   524   525
    473      1   525   526
    474      1   526   527
    475      1   527   528
    476      1   528   529
    477      1   529   530
    478      1   531   532
    479      1   532   533
    480      1   533   534
    481      1   534   535
    482      1   535   536
    483      1   536   537
    484      1   537   538
    485      1   538   539
    486      1   539   540
    487      1   541   542
    488      1   542   543
    489      1   543   544
    490      1   544   545
    491      1   545   546
    492      1   546   547
    493      1   547   548
    494      1   548   549
    495      1   549   550
    496      1   551   552
    497      1   552   553
    498      1   553   554
    499      1   554   555
    500      1   555   556
    501      1   556   557
    502      1   557   558
    503      1   558   559
    504      1   559   560
    505      1   561   562
    506      1   562   563
    507      1   563   564
    508      1   564   565
    509      1   565   566
    510      1   566   567
    511      1   567   568
    512      1   568   569
    513      1   569   570
    514      1   571   572
    515      1   572   573
    516      1   573   574
    517      1   574   575
    518      1   575   576
    519      1   576   577
    520      1   577   578
    521      1   578   579
    522      1   579   580
    523      1   581   582
    524      1   582   583
    525      1   583   584
    526      1   584   585
    527      1   585   586
    528      1   586   587
    529      1   587   588
    530      1   588   589
    531      1   589   590
    532      1   591   592
    533      1   592   593
    534      1   593   594
    535      1   594   595
    536      1   595   596
    537      1   596   597
    538      1   597   598
    539      1   598   599
    540      1   599   600
    541      1   601   602
    542      1   602   603
    543      1   603   604
    544      1   604   605
    545      1   605   606
    546      1   606   607
    547      1   607   608
    548      1   608   609
    549      1   609   610
    550      1   611   612
    551      1   612   613
    552      1   613   614
    553      1   614   615
    554      1   615   616
    555      1   616   617
    556      1   617   618
    557      1   618   619
    558      1   619   620
    559      1   621   622
    560      1   622   623
    561      1   623   624
    562      1   624   625
    563      1   625   626
    564      1   626   627
    565      1   627   628
    566      1   628   629
    567      1   629   630
    568      1   631   632
    569      1   632   633
    570      1   633   634
    571      1   634   635
    572      1   635   636
    573      1   636   637
    574      1   637   638
    575      1   638   639
    576      1   639   640
    577      1   641   642
    578      1   642   643
    579      1   643   644
    580      1   644   645
    581      1   645   646
    582      1   646   647
    583      1   647   648
    584      1   648   649
    585      1   649   650
    586      1   651   652
    587      1   652   653
    588      1   653   654
    589      1   654   655
    590      1   655   656
    591      1   656   657
    592      1   657   658
    593      1   658   659
    594      1   659   660
    595      1   661   662
    596      1   662   663
    597      1   663   664
    598      1   664   665
    599      1   665   666
    600      1   666   667
    601      1   667   668
    602      1   668   669
    603      1   669   670
    604      1   671   672
    605      1   672   673
    606      1   673   674
    607      1   674   675
    608      1   675   676
    609      1   676   677
    610      1   677   678
    611      1   678   679
    612      1   679   680
    613      1   681   682
    614      1   682   683
    615      1   683   684
    616      1   684   685
    617      1   685   686
    618      1   686   687
    619      1   687   688
    620      1   688   689
    621      1   689   690
    622      1   691   692
    623      1   692   693
    624      1   693   694
    625      1   694   695
    626      1   695   696
    627      1   696   697
    628      1   697   698
    629      1   698   699
    630      1   699   700
    631      1   701   702
    632      1   702   703
    633      1   703   704
    634      1   704   705
    635      1   705   706
    636      1   706   707
    637      1   707   708
    638      1   708   709
    639      1   709   710
    640      1   711   712
    641      1   712   713
    642      1   713   714
    643      1   714   715
    644      1   715   716
    645      1   716   717
    646      1   717   718
    647      1   718   719
    648      1   719   720
    649      1   721   722
    650      1   722   723
    651      1   723   724
    652      1   724   725
    653      1   725   726
    654      1   726   727
    655      1   727   728
    656      1   728   729
    657      1   729   730
    658      1   731   732
    659      1   732   733
    660      1   733   734
    661      1   734   735
    662      1   735   736
    663      1   736   737
    664      1   737   738
    665      1   738   739
    666      1   739   740
    667      1   741   742
    668      1   742   743
    669      1   743   744
    670      1   744   745
    671      1   745   746
    672      1   746   747
    673      1   747   748
    674      1   748   749
    675      1   749   750
    676      1   751   752
    677      1   752   753
    678      1   753   754
    679      1   754   755
    680      1   755   756
    681      1   756   757
    682      1   757   758
    683      1   758   759
    684      1   759   760
    685      1   761   762
    686      1   762   763
    687      1   763   764
    688      1   764   765
    689      1   765   766
    690      1   766   767
    691      1   767   768
    692      1   768   769
    693      1   769   770
    694      1   771   772
    695      1   772   773
    696      1   773   774
    697      1   774   775
    698      1   775   776
    699      1   776   777
    700      1   777   778
    701      1   778   779
    702      1   779   780
    703      1   781   782
    704      1   782   783
    705      1   783   784
    706      1   784   785
    707      1   785   786
    708      1   786   787
    709      1   787   788
    710      1   788   789
    711      1   789   790
    712      1   791   792
    713      1   792   793
    714      1   793   794
    715      1   794   795
    716      1   795   796
    717      1   796   797
    718      1   797   798
    719      1   798   799
    720      1   799   800
    721      1   801   802
    722      1   802   803
    723      1   803   804
    724      1   804   805
    725      1   805   806
    726      1   806   807
    727      1   807   808
    728      1   808   809
    729      1   809   810
    730      1   811   812
    731      1   812   813
    732      1   813   814
    733      1   814   815
    734      1   815   816
    735      1   816   817
    736      1   817   818
    737      1   818   819
    738      1   819   820
    739      1   821   822
    740      1   822   823
    741      1   823   824
    742      1   824   825
    743      1   825   826
    744      1   826   827
    745      1   827   828
    746      1   828   829
    747      1   829   830
    748      1   831   832
    749      1   832   833
    750      1   833   834
    751      1   834   835
    752      1   835   836
    753      1   836   837
    754      1   837   838
    755      1   838   839
    756      1   839   840
    757      1   841   842
    758      1   842   843
    759      1   843   844
    760      1   844   845
    761      1   845   846
    762      1   846   847
    763      1   847   848
    764      1   848   849
    765      1   849   850
    766      1   851   852
    767      1   852   853
    768      1   853   854
    769      1   854   855
    770      1   855   856
    771      1   856   857
    772      1   857   858
    773      1   858   859
    774      1   859   860
    775      1   861   862
    776      1   862   863
    777      1   863   864
    778      1   864   865
    779      1   865   866
    780      1   866   867
    781      1   867   868
    782      1   868   869
    783      1   869   870
    784      1   871   872
    785      1   872   873
    786      1   873   874
    787      1   874   875
    788      1   875   876
    789      1   876   877
    790      1   877   878
    791      1   878   879
    792      1   879   880
    793      1   881   882
    794      1   882   883
    795      1   883   884
    796      1   884   885
    797      1   885   886
    798      1   886   887
    799      1   887   888
    800      1   888   889
    801      1   889   890
    802      1   891   892
    803      1   892   893
    804      1   893   894
    805      1   894   895
    806      1   895   896
    807      1   896   897
    808      1   897   898
    809      1   898   899
    810      1   899   900
    811      1   901   902
    812      1   902   903
    813      1   903   904
    814      1   904   905
    815      1   905   906
    816      1   906   907
    817      1   907   908
    818      1   908   909
    819      1   909   910
    820      1   911   912
    821      1   912   913
    822      1   913   914
    823      1   914   915
    824      1   915   916
    825      1   916   917
    826      1   917   918
    827      1   918   919
    828      1   919   920
    829      1   921   922
    830      1   922   923
    831      1   923   924
    832      1   924   925
    833      1   925   926
    834      1   926   927
    835      1   927   928
    836      1   928   929
    837      1   929   930
    838      1   931   932
    839      1   932   933
    840      1   933   934
    841      1   934   935
    842      1   935   936
    843      1   936   937
    844      1   937   938
    845      1   938   939
    846      1   939   940
    847      1   941   942
    848      1   942   943
    849      1   943   944
    850      1   944   945
    851      1   945   946
    852      1   946   947
    853      1   947   948
    854      1   948   949
    855      1   949   950
    856      1   951   952
    857      1   952   953
    858      1   953   954
    859      1   954   955
    860      1   955   956
    861      1   956   957
    862      1   957   958
    863      1   958   959
    864      1   959   960
    865      1   961   962
    866      1   962   963
    867      1   963   964
    868      1   964   965
    869      1   965   966
    870      1   966   967
    871      1   967   968
    872      1   968   969
    873      1   969   970
    874      1   971   972
    875      1   972   973
    876      1   973   974
    877      1   974   975
    878      1   975   976
    879      1   976   977
    880      1   977   978
    881      1   978   979
    882      1   979   980
    883      1   981   982
    884      1   982   983
    885      1   983   984
    886      1   984   985
    887      1   985   986
    888      1   986   987
    889      1   987   988
    890      1   988   989
    891      1   989   990
    892      1   991   992
    893      1   992   993
    894      1   993   994
    895      1   994   995
    896      1   995   996
    897      1   996   997
    898      1   997   998
    899      1   998   999
    900      1   999  1000
    901      1  1001  1002
    902      1  1002  1003
    903      1  1003  1004
    904      1  1004  1005
    905      1  1005  1006
    906      1  1006  1007
    907      1  1007  1008
    908      1  1008  1009
    909      1  1009  1010
    910      1  1011  1012
    911      1  1012  1013
    912      1  1013  1014
    913      1  1014  1015
    914      1  1015  1016
    915      1  1016  1017
    916      1  1017  1018
    917      1  1018  1019
    918      1  1019  1020
    919      1  1021  1022
    920      1  1022  1023
    921      1  1023  1024
    922      1  1024  1025
    923      1  1025  1026
    924      1  1026  1027
    925      1  1027  1028
    926      1  1028  1029
    927      1  1029  1030
    928      1  1031  1032
    929      1  1032  1033
    930      1  1033  1034
    931      1  1034  1035
    932      1  1035  1036
    933      1  1036  1037
    934      1  1037  1038
    935      1  1038  1039
    936      1  1039  1040
    937      1  1041  1042
    938      1  1042  1043
    939      1  1043  1044
    940      1  1044  1045
    941      1  1045  1046
    942      1  1046  1047
    943      1  1047  1048
    944      1  1048  1049
    945      1  1049  1050
    946      1  1051  1052
    947      1  1052  1053
    948      1  1053  1054
    949      1  1054  1055
    950      1  1055  1056
    951      1  1056  1057
    952      1  1057  1058
    953      1  1058  1059
    954      1  1059  1060
    955      1  1061  1062
    956      1  1062  1063
    957      1  1063  1064
    958      1  1064  1065
    959      1  1065  1066
    960      1  1066  1067
    961      1  1067  1068
    962      1  1068  1069
    963      1  1069  1070
    964      1  1071  1072
    965      1  1072  1073
    966      1  1073  1074
    967      1  1074  1075
    968      1  1075  1076
    969      1  1076  1077
    970      1  1077  1078
    971      1  1078  1079
    972      1  1079  1080
    973      1  1081  1082
    974      1  1082  1083
    975      1  1083  1084
    976      1  1084  1085
    977      1  1085  1086
    978      1  1086  1087
    979      1  1087  1088
    980      1  1088  1089
    981      1  1089  1090
    982      1  1091  1092
    983      1  1092  1093
    984      1  1093  1094
    985      1  1094  1095
    986      1  1095  1096
    987      1  1096  1097
    988      1  1097  1098
    989      1  1098  1099
    990      1  1099  1100
    991      1  1101  1102
    992      1  1102  1103
    993      1  1103  1104
    994      1  1104  1105
    995      1  1105  1106
    996      1  1106  1107
    997      1  1107  1108
    998      1  1108  1109
    999      1  1109  1110
   1000      1  1111  1112
   1001      1  1112  1113
   1002      1  1113  1114
   1003      1  1114  1115
   1004      1  1115  1116
   1005      1  1116  1117
   1006      1  1117  1118
   1007      1  1118  1119
   1008      1  1119  1120
   1009      1  1121  1122
   1010      1  1122  1123
   1011      1  1123  1124
   1012      1  1124  1125
   1013      1  1125  1126
   1014      1  1126  1127
   1015      1  1127  1128
   1016      1  1128  1129
   1017      1  1129  1130
   1018      1  1131  1132
   1019      1  1132  1133
   1020      1  1133  1134
   1021      1  1134  1135
   1022      1  1135  1136
   1023      1  1136  1137
   1024      1  1137  1138
   1025      1  1138  1139
   1026      1  1139  1140
   1027      1  1141  1142
   1028      1  1142  1143
   1029      1  1143  1144
   1030      1  1144  1145
   1031      1  1145  1146
   1032      1  1146  1147
   1033      1  1147  1148
   1034      1  1148  1149
   1035      1  1149  1150
   1036      1  1151  1152
   1037      1  1152  1153
   1038      1  1153  1154
   1039      1  1154  1155
   1040      1  1155  1156
   1041      1  1156  1157
   1042      1  1157  1158
   1043      1  1158  1159
   1044      1  1159  1160
   1045      1  1161  1162
   1046      1  1162  1163
   1047      1  1163  1164
   1048      1  1164  1165
   1049      1  1165  1166
   1050      1  1166  1167
   1051      1  1167  1168
   1052      1  1168  1169
   1053      1  1169  1170
   1054      1  1171  1172
   1055      1  1172  1173
   1056      1  1173  1174
   1057      1  1174  1175
   1058      1  1175  1176
   1059      1  1176  1177
   1060      1  1177  1178
   1061      1  1178  1179
   1062      1  1179  1180
   1063      1  1181  1182
   1064      1  1182  1183
   1065      1  1183  1184
   1066      1  1184  1185
   1067      1  1185  1186
   1068      1  1186  1187
   1069      1  1187  1188
   1070      1  1188  1189
   1071      1  1189  1190
   1072      1  1191  1192
   1073      1  1192  1193
   1074      1  1193  1194
   1075      1  1194  1195
   1076      1  1195  1196
   1077      1  1196  1197
   1078      1  1197  1198
   1079      1  1198  1199
   1080      1  1199  1200
